p cnf 1334 3537
c L(1)[2] is 28
c B(3)[3] is 513
c Small_to_big(2) is 217
c B(4)[3] is 799
c L(0)[0] is 13
c Fill_big(5) is 1066
c B(2)[3] is 227
c L(0)[3] is 10
c L(3)[0] is 527
c L(4)[0] is 813
c L(1)[1] is 32
c B(5)[2] is 1069
c Big_to_small(3) is 506
c B(1)[3] is 21
c L(5)[2] is 1088
c B(1)[0] is 15
c L(2)[2] is 234
c B(0)[3] is 2
c L(5)[0] is 1095
c B(0)[0] is 5
c L(1)[0] is 35
c B(3)[1] is 509
c B(5)[0] is 1071
c Empty_small(1) is 5
c L(4)[2] is 806
c B(4)[2] is 797
c Empty_big(4) is 786
c Big_to_small(1) is 14
c Fill_small(5) is 1065
c Fill_small(1) is 1
c B(0)[2] is 3
c B(3)[0] is 507
c B(5)[3] is 1068
c B(2)[1] is 223
c Big_to_small(4) is 792
c Empty_small(4) is 783
c L(0)[2] is 11
c B(5)[1] is 1070
c L(4)[1] is 810
c Small_to_big(3) is 503
c L(3)[3] is 519
c Empty_big(2) is 214
c Empty_big(3) is 500
c Fill_small(3) is 493
c L(2)[1] is 238
c L(1)[3] is 27
c Fill_small(2) is 207
c Empty_big(5) is 1072
c B(0)[1] is 4
c B(2)[0] is 221
c Fill_big(1) is 2
c B(1)[1] is 17
c Small_to_big(4) is 789
c B(4)[1] is 795
c L(2)[0] is 241
c L(3)[2] is 520
c B(1)[2] is 19
c Empty_small(3) is 497
c B(3)[2] is 511
c Init(0) is 1
c L(3)[1] is 524
c L(0)[1] is 12
c L(5)[3] is 1087
c L(5)[1] is 1092
c Small_to_big(1) is 11
c B(2)[2] is 225
c Fill_big(2) is 208
c Fill_big(4) is 780
c Empty_small(5) is 1069
c Fill_big(3) is 494
c L(4)[3] is 805
c Big_to_small(2) is 220
c Empty_big(1) is 8
c B(4)[0] is 793
c L(2)[3] is 233
c Big_to_small(5) is 1078
c Empty_small(2) is 211
c Fill_small(4) is 779
c Small_to_big(5) is 1075
1 2 -4 0
-1 4 0
-2 4 0
-1 -2 0
5 4 -7 0
-4 7 0
-5 7 0
-5 -4 0
8 7 -10 0
-7 10 0
-8 10 0
-8 -7 0
11 10 -13 0
-10 13 0
-11 13 0
-11 -10 0
14 13 0
-14 -13 0
15 16 0
-15 -16 0
17 18 0
-17 -18 0
19 20 0
-19 -20 0
21 22 0
-21 -22 0
-20 -22 23 0
20 -23 0
22 -23 0
-18 -23 24 0
18 -24 0
23 -24 0
-16 -24 25 0
16 -25 0
24 -25 0
-1 -25 26 0
1 -26 0
25 -26 0
27 28 29 0
-28 -29 0
-27 -29 0
-32 -29 31 0
32 -31 0
29 -31 0
-35 -31 34 0
35 -34 0
31 -34 0
-26 -34 36 0
26 -36 0
34 -36 0
21 -19 37 0
19 -37 0
-21 -37 0
17 -37 38 0
-17 -38 0
37 -38 0
-15 -38 39 0
15 -39 0
38 -39 0
-2 -39 40 0
2 -40 0
39 -40 0
35 41 0
-35 -41 0
32 42 0
-32 -42 0
28 43 0
-28 -43 0
27 44 0
-27 -44 0
-43 -44 45 0
43 -45 0
44 -45 0
-42 -45 46 0
42 -46 0
45 -46 0
-41 -46 47 0
41 -47 0
46 -47 0
-40 -47 48 0
40 -48 0
47 -48 0
36 48 -50 0
-36 50 0
-48 50 0
27 28 51 0
-28 -51 0
-27 -51 0
32 -51 52 0
-32 -52 0
51 -52 0
35 -52 53 0
-35 -53 0
52 -53 0
-5 -53 54 0
5 -54 0
53 -54 0
15 55 0
-15 -55 0
17 56 0
-17 -56 0
19 57 0
-19 -57 0
21 58 0
-21 -58 0
-57 -58 59 0
57 -59 0
58 -59 0
-56 -59 60 0
56 -60 0
59 -60 0
-55 -60 61 0
55 -61 0
60 -61 0
-54 -61 62 0
54 -62 0
61 -62 0
50 62 -64 0
-50 64 0
-62 64 0
35 65 0
-35 -65 0
32 66 0
-32 -66 0
28 67 0
-28 -67 0
27 68 0
-27 -68 0
-67 -68 69 0
67 -69 0
68 -69 0
-66 -69 70 0
66 -70 0
69 -70 0
-65 -70 71 0
65 -71 0
70 -71 0
-8 -71 72 0
8 -72 0
71 -72 0
21 19 73 0
-19 -73 0
-21 -73 0
17 -73 74 0
-17 -74 0
73 -74 0
15 -74 75 0
-15 -75 0
74 -75 0
-72 -75 76 0
72 -76 0
75 -76 0
64 76 -78 0
-64 78 0
-76 78 0
15 79 0
-15 -79 0
17 80 0
-17 -80 0
19 81 0
-19 -81 0
21 82 0
-21 -82 0
-82 83 0
82 -83 0
-81 -83 84 0
81 -84 0
83 -84 0
-80 -84 85 0
80 -85 0
84 -85 0
-79 -85 86 0
79 -86 0
85 -86 0
-11 -86 87 0
11 -87 0
86 -87 0
15 88 0
-15 -88 0
-15 89 0
15 -89 0
88 89 -91 0
-88 91 0
-89 91 0
17 92 0
-17 -92 0
91 -92 93 0
-91 92 93 0
-91 -92 -93 0
91 92 -93 0
-91 -92 94 0
92 -94 0
91 -94 0
-17 95 0
17 -95 0
94 95 -97 0
-94 97 0
-95 97 0
19 98 0
-19 -98 0
97 -98 99 0
-97 98 99 0
-97 -98 -99 0
97 98 -99 0
-97 -98 100 0
98 -100 0
97 -100 0
-19 101 0
19 -101 0
100 101 -103 0
-100 103 0
-101 103 0
21 104 0
-21 -104 0
103 -104 105 0
-103 104 105 0
-103 -104 -105 0
103 104 -105 0
-103 -104 106 0
104 -106 0
103 -106 0
-21 107 0
21 -107 0
106 107 -109 0
-106 109 0
-107 109 0
-88 110 0
88 -110 0
110 -112 0
-110 112 0
93 113 0
-93 -113 0
112 -113 114 0
-112 113 114 0
-112 -113 -114 0
112 113 -114 0
-112 -113 115 0
113 -115 0
112 -115 0
115 -117 0
-115 117 0
99 118 0
-99 -118 0
117 -118 119 0
-117 118 119 0
-117 -118 -119 0
117 118 -119 0
-117 -118 120 0
118 -120 0
117 -120 0
120 -122 0
-120 122 0
105 123 0
-105 -123 0
122 -123 124 0
-122 123 124 0
-122 -123 -124 0
122 123 -124 0
-122 -123 125 0
123 -125 0
122 -125 0
125 -127 0
-125 127 0
-109 127 128 0
109 -127 128 0
-109 -127 -128 0
109 127 -128 0
-109 -127 129 0
109 -129 0
127 -129 0
-109 129 130 0
109 -129 130 0
-109 -129 -130 0
109 129 -130 0
-109 -129 131 0
109 -131 0
129 -131 0
35 -110 132 0
-35 110 132 0
35 110 -132 0
-35 -110 -132 0
32 114 133 0
-32 -114 133 0
32 -114 -133 0
-32 114 -133 0
28 119 134 0
-28 -119 134 0
28 -119 -134 0
-28 119 -134 0
27 124 135 0
-27 -124 135 0
27 -124 -135 0
-27 124 -135 0
128 130 136 0
-128 -136 0
-130 -136 0
-135 -136 137 0
135 -137 0
136 -137 0
-134 -137 138 0
134 -138 0
137 -138 0
-133 -138 139 0
133 -139 0
138 -139 0
-132 -139 140 0
132 -140 0
139 -140 0
-87 -140 141 0
87 -141 0
140 -141 0
78 141 -143 0
-78 143 0
-141 143 0
35 144 0
-35 -144 0
32 145 0
-32 -145 0
28 146 0
-28 -146 0
27 147 0
-27 -147 0
-147 148 0
147 -148 0
-146 -148 149 0
146 -149 0
148 -149 0
-145 -149 150 0
145 -150 0
149 -150 0
-144 -150 151 0
144 -151 0
150 -151 0
-14 -151 152 0
14 -152 0
151 -152 0
35 153 0
-35 -153 0
-35 154 0
35 -154 0
153 154 -156 0
-153 156 0
-154 156 0
32 157 0
-32 -157 0
156 -157 158 0
-156 157 158 0
-156 -157 -158 0
156 157 -158 0
-156 -157 159 0
157 -159 0
156 -159 0
-32 160 0
32 -160 0
159 160 -162 0
-159 162 0
-160 162 0
28 163 0
-28 -163 0
162 -163 164 0
-162 163 164 0
-162 -163 -164 0
162 163 -164 0
-162 -163 165 0
163 -165 0
162 -165 0
-28 166 0
28 -166 0
165 166 -168 0
-165 168 0
-166 168 0
27 169 0
-27 -169 0
168 -169 170 0
-168 169 170 0
-168 -169 -170 0
168 169 -170 0
-168 -169 171 0
169 -171 0
168 -171 0
-27 172 0
27 -172 0
171 172 -174 0
-171 174 0
-172 174 0
-153 175 0
153 -175 0
175 -177 0
-175 177 0
158 178 0
-158 -178 0
177 -178 179 0
-177 178 179 0
-177 -178 -179 0
177 178 -179 0
-177 -178 180 0
178 -180 0
177 -180 0
180 -182 0
-180 182 0
164 183 0
-164 -183 0
182 -183 184 0
-182 183 184 0
-182 -183 -184 0
182 183 -184 0
-182 -183 185 0
183 -185 0
182 -185 0
185 -187 0
-185 187 0
170 188 0
-170 -188 0
187 -188 189 0
-187 188 189 0
-187 -188 -189 0
187 188 -189 0
-187 -188 190 0
188 -190 0
187 -190 0
190 -192 0
-190 192 0
-174 192 193 0
174 -192 193 0
-174 -192 -193 0
174 192 -193 0
-174 -192 194 0
174 -194 0
192 -194 0
-174 194 195 0
174 -194 195 0
-174 -194 -195 0
174 194 -195 0
-174 -194 196 0
174 -196 0
194 -196 0
15 -175 197 0
-15 175 197 0
15 175 -197 0
-15 -175 -197 0
17 179 198 0
-17 -179 198 0
17 -179 -198 0
-17 179 -198 0
19 184 199 0
-19 -184 199 0
19 -184 -199 0
-19 184 -199 0
21 189 200 0
-21 -189 200 0
21 -189 -200 0
-21 189 -200 0
193 195 201 0
-193 -201 0
-195 -201 0
-200 -201 202 0
200 -202 0
201 -202 0
-199 -202 203 0
199 -203 0
202 -203 0
-198 -203 204 0
198 -204 0
203 -204 0
-197 -204 205 0
197 -205 0
204 -205 0
-152 -205 206 0
152 -206 0
205 -206 0
143 206 0
207 208 -210 0
-207 210 0
-208 210 0
-207 -208 0
211 210 -213 0
-210 213 0
-211 213 0
-211 -210 0
214 213 -216 0
-213 216 0
-214 216 0
-214 -213 0
217 216 -219 0
-216 219 0
-217 219 0
-217 -216 0
220 219 0
-220 -219 0
15 221 222 0
-15 -221 222 0
-15 221 -222 0
15 -221 -222 0
17 223 224 0
-17 -223 224 0
-17 223 -224 0
17 -223 -224 0
19 225 226 0
-19 -225 226 0
-19 225 -226 0
19 -225 -226 0
21 227 228 0
-21 -227 228 0
-21 227 -228 0
21 -227 -228 0
-226 -228 229 0
226 -229 0
228 -229 0
-224 -229 230 0
224 -230 0
229 -230 0
-222 -230 231 0
222 -231 0
230 -231 0
-207 -231 232 0
207 -232 0
231 -232 0
233 234 235 0
-234 -235 0
-233 -235 0
-238 -235 237 0
238 -237 0
235 -237 0
-241 -237 240 0
241 -240 0
237 -240 0
-232 -240 242 0
232 -242 0
240 -242 0
227 -225 243 0
225 -243 0
-227 -243 0
223 -243 244 0
-223 -244 0
243 -244 0
-221 -244 245 0
221 -245 0
244 -245 0
-208 -245 246 0
208 -246 0
245 -246 0
35 241 247 0
-35 -241 247 0
-35 241 -247 0
35 -241 -247 0
32 238 248 0
-32 -238 248 0
-32 238 -248 0
32 -238 -248 0
28 234 249 0
-28 -234 249 0
-28 234 -249 0
28 -234 -249 0
27 233 250 0
-27 -233 250 0
-27 233 -250 0
27 -233 -250 0
-249 -250 251 0
249 -251 0
250 -251 0
-248 -251 252 0
248 -252 0
251 -252 0
-247 -252 253 0
247 -253 0
252 -253 0
-246 -253 254 0
246 -254 0
253 -254 0
242 254 -256 0
-242 256 0
-254 256 0
233 234 257 0
-234 -257 0
-233 -257 0
238 -257 258 0
-238 -258 0
257 -258 0
241 -258 259 0
-241 -259 0
258 -259 0
-211 -259 260 0
211 -260 0
259 -260 0
15 221 261 0
-15 -221 261 0
-15 221 -261 0
15 -221 -261 0
17 223 262 0
-17 -223 262 0
-17 223 -262 0
17 -223 -262 0
19 225 263 0
-19 -225 263 0
-19 225 -263 0
19 -225 -263 0
21 227 264 0
-21 -227 264 0
-21 227 -264 0
21 -227 -264 0
-263 -264 265 0
263 -265 0
264 -265 0
-262 -265 266 0
262 -266 0
265 -266 0
-261 -266 267 0
261 -267 0
266 -267 0
-260 -267 268 0
260 -268 0
267 -268 0
256 268 -270 0
-256 270 0
-268 270 0
35 241 271 0
-35 -241 271 0
-35 241 -271 0
35 -241 -271 0
32 238 272 0
-32 -238 272 0
-32 238 -272 0
32 -238 -272 0
28 234 273 0
-28 -234 273 0
-28 234 -273 0
28 -234 -273 0
27 233 274 0
-27 -233 274 0
-27 233 -274 0
27 -233 -274 0
-273 -274 275 0
273 -275 0
274 -275 0
-272 -275 276 0
272 -276 0
275 -276 0
-271 -276 277 0
271 -277 0
276 -277 0
-214 -277 278 0
214 -278 0
277 -278 0
227 225 279 0
-225 -279 0
-227 -279 0
223 -279 280 0
-223 -280 0
279 -280 0
221 -280 281 0
-221 -281 0
280 -281 0
-278 -281 282 0
278 -282 0
281 -282 0
270 282 -284 0
-270 284 0
-282 284 0
-15 35 285 0
15 -35 285 0
-15 -35 -285 0
15 35 -285 0
-15 -35 286 0
15 -286 0
35 -286 0
-17 32 287 0
17 -32 287 0
-17 -32 -287 0
17 32 -287 0
286 -287 288 0
-286 287 288 0
-286 -287 -288 0
286 287 -288 0
-286 -287 289 0
287 -289 0
286 -289 0
-17 -32 290 0
17 -290 0
32 -290 0
289 290 -292 0
-289 292 0
-290 292 0
-19 28 293 0
19 -28 293 0
-19 -28 -293 0
19 28 -293 0
292 -293 294 0
-292 293 294 0
-292 -293 -294 0
292 293 -294 0
-292 -293 295 0
293 -295 0
292 -295 0
-19 -28 296 0
19 -296 0
28 -296 0
295 296 -298 0
-295 298 0
-296 298 0
-21 27 299 0
21 -27 299 0
-21 -27 -299 0
21 27 -299 0
298 -299 300 0
-298 299 300 0
-298 -299 -300 0
298 299 -300 0
-298 -299 301 0
299 -301 0
298 -301 0
-21 -27 302 0
21 -302 0
27 -302 0
301 302 -304 0
-301 304 0
-302 304 0
300 304 305 0
-304 -305 0
-300 -305 0
294 -305 306 0
305 -306 0
-294 -306 0
-294 -305 307 0
305 -307 0
294 -307 0
288 -307 308 0
307 -308 0
-288 -308 0
285 -308 309 0
308 -309 0
-285 -309 0
306 309 -311 0
-309 311 0
-306 311 0
-285 -311 312 0
311 -312 0
285 -312 0
-311 312 -314 0
-312 314 0
311 314 0
-288 -311 315 0
311 -315 0
288 -315 0
-294 -311 316 0
311 -316 0
294 -316 0
-311 316 -318 0
-316 318 0
311 318 0
-300 -311 319 0
311 -319 0
300 -319 0
-304 -311 320 0
311 -320 0
304 -320 0
221 314 321 0
-221 -314 321 0
221 -314 -321 0
-221 314 -321 0
223 315 322 0
-223 -315 322 0
223 -315 -322 0
-223 315 -322 0
225 318 323 0
-225 -318 323 0
225 -318 -323 0
-225 318 -323 0
227 319 324 0
-227 -319 324 0
227 -319 -324 0
-227 319 -324 0
320 -324 325 0
324 -325 0
-320 -325 0
-323 -325 326 0
323 -326 0
325 -326 0
-322 -326 327 0
322 -327 0
326 -327 0
-321 -327 328 0
321 -328 0
327 -328 0
-217 -328 329 0
217 -329 0
328 -329 0
-15 -221 330 0
15 221 330 0
15 -221 -330 0
-15 221 -330 0
15 -221 331 0
221 -331 0
-15 -331 0
330 331 -333 0
-330 333 0
-331 333 0
-17 -223 334 0
17 223 334 0
17 -223 -334 0
-17 223 -334 0
333 -334 335 0
-333 334 335 0
-333 -334 -335 0
333 334 -335 0
-333 -334 336 0
334 -336 0
333 -336 0
17 -223 337 0
223 -337 0
-17 -337 0
336 337 -339 0
-336 339 0
-337 339 0
-19 -225 340 0
19 225 340 0
19 -225 -340 0
-19 225 -340 0
339 -340 341 0
-339 340 341 0
-339 -340 -341 0
339 340 -341 0
-339 -340 342 0
340 -342 0
339 -342 0
19 -225 343 0
225 -343 0
-19 -343 0
342 343 -345 0
-342 345 0
-343 345 0
-21 -227 346 0
21 227 346 0
21 -227 -346 0
-21 227 -346 0
345 -346 347 0
-345 346 347 0
-345 -346 -347 0
345 346 -347 0
-345 -346 348 0
346 -348 0
345 -348 0
21 -227 349 0
227 -349 0
-21 -349 0
348 349 -351 0
-348 351 0
-349 351 0
-35 330 352 0
35 -330 352 0
-35 -330 -352 0
35 330 -352 0
-35 -330 353 0
35 -353 0
330 -353 0
352 353 -355 0
-352 355 0
-353 355 0
-32 -335 356 0
32 335 356 0
-32 335 -356 0
32 -335 -356 0
355 -356 357 0
-355 356 357 0
-355 -356 -357 0
355 356 -357 0
-355 -356 358 0
356 -358 0
355 -358 0
-32 335 359 0
32 -359 0
-335 -359 0
358 359 -361 0
-358 361 0
-359 361 0
-28 -341 362 0
28 341 362 0
-28 341 -362 0
28 -341 -362 0
361 -362 363 0
-361 362 363 0
-361 -362 -363 0
361 362 -363 0
-361 -362 364 0
362 -364 0
361 -364 0
-28 341 365 0
28 -365 0
-341 -365 0
364 365 -367 0
-364 367 0
-365 367 0
-27 -347 368 0
27 347 368 0
-27 347 -368 0
27 -347 -368 0
367 -368 369 0
-367 368 369 0
-367 -368 -369 0
367 368 -369 0
-367 -368 370 0
368 -370 0
367 -370 0
-27 347 371 0
27 -371 0
-347 -371 0
370 371 -373 0
-370 373 0
-371 373 0
-351 373 374 0
351 -373 374 0
-351 -373 -374 0
351 373 -374 0
-351 -373 375 0
351 -375 0
373 -375 0
-351 375 376 0
351 -375 376 0
-351 -375 -376 0
351 375 -376 0
-351 -375 377 0
351 -377 0
375 -377 0
241 -352 378 0
-241 352 378 0
241 352 -378 0
-241 -352 -378 0
238 357 379 0
-238 -357 379 0
238 -357 -379 0
-238 357 -379 0
234 363 380 0
-234 -363 380 0
234 -363 -380 0
-234 363 -380 0
233 369 381 0
-233 -369 381 0
233 -369 -381 0
-233 369 -381 0
374 376 382 0
-374 -382 0
-376 -382 0
-381 -382 383 0
381 -383 0
382 -383 0
-380 -383 384 0
380 -384 0
383 -384 0
-379 -384 385 0
379 -385 0
384 -385 0
-378 -385 386 0
378 -386 0
385 -386 0
-329 -386 387 0
329 -387 0
386 -387 0
284 387 -389 0
-284 389 0
-387 389 0
-15 35 390 0
15 -35 390 0
-15 -35 -390 0
15 35 -390 0
-15 -35 391 0
15 -391 0
35 -391 0
-17 32 392 0
17 -32 392 0
-17 -32 -392 0
17 32 -392 0
391 -392 393 0
-391 392 393 0
-391 -392 -393 0
391 392 -393 0
-391 -392 394 0
392 -394 0
391 -394 0
-17 -32 395 0
17 -395 0
32 -395 0
394 395 -397 0
-394 397 0
-395 397 0
-19 28 398 0
19 -28 398 0
-19 -28 -398 0
19 28 -398 0
397 -398 399 0
-397 398 399 0
-397 -398 -399 0
397 398 -399 0
-397 -398 400 0
398 -400 0
397 -400 0
-19 -28 401 0
19 -401 0
28 -401 0
400 401 -403 0
-400 403 0
-401 403 0
-21 27 404 0
21 -27 404 0
-21 -27 -404 0
21 27 -404 0
403 -404 405 0
-403 404 405 0
-403 -404 -405 0
403 404 -405 0
-403 -404 406 0
404 -406 0
403 -406 0
-21 -27 407 0
21 -407 0
27 -407 0
406 407 -409 0
-406 409 0
-407 409 0
405 409 410 0
-409 -410 0
-405 -410 0
399 -410 411 0
410 -411 0
-399 -411 0
393 -411 412 0
411 -412 0
-393 -412 0
-393 -411 413 0
411 -413 0
393 -413 0
390 -413 414 0
413 -414 0
-390 -414 0
412 414 -416 0
-414 416 0
-412 416 0
-390 -416 417 0
416 -417 0
390 -417 0
-416 417 -419 0
-417 419 0
416 419 0
-393 -416 420 0
416 -420 0
393 -420 0
-416 420 -422 0
-420 422 0
416 422 0
-399 -416 423 0
416 -423 0
399 -423 0
-405 -416 424 0
416 -424 0
405 -424 0
-409 -416 425 0
416 -425 0
409 -425 0
241 419 426 0
-241 -419 426 0
241 -419 -426 0
-241 419 -426 0
238 422 427 0
-238 -422 427 0
238 -422 -427 0
-238 422 -427 0
234 423 428 0
-234 -423 428 0
234 -423 -428 0
-234 423 -428 0
233 424 429 0
-233 -424 429 0
233 -424 -429 0
-233 424 -429 0
425 -429 430 0
429 -430 0
-425 -430 0
-428 -430 431 0
428 -431 0
430 -431 0
-427 -431 432 0
427 -432 0
431 -432 0
-426 -432 433 0
426 -433 0
432 -433 0
-220 -433 434 0
220 -434 0
433 -434 0
-35 -241 435 0
35 241 435 0
35 -241 -435 0
-35 241 -435 0
35 -241 436 0
241 -436 0
-35 -436 0
435 436 -438 0
-435 438 0
-436 438 0
-32 -238 439 0
32 238 439 0
32 -238 -439 0
-32 238 -439 0
438 -439 440 0
-438 439 440 0
-438 -439 -440 0
438 439 -440 0
-438 -439 441 0
439 -441 0
438 -441 0
32 -238 442 0
238 -442 0
-32 -442 0
441 442 -444 0
-441 444 0
-442 444 0
-28 -234 445 0
28 234 445 0
28 -234 -445 0
-28 234 -445 0
444 -445 446 0
-444 445 446 0
-444 -445 -446 0
444 445 -446 0
-444 -445 447 0
445 -447 0
444 -447 0
28 -234 448 0
234 -448 0
-28 -448 0
447 448 -450 0
-447 450 0
-448 450 0
-27 -233 451 0
27 233 451 0
27 -233 -451 0
-27 233 -451 0
450 -451 452 0
-450 451 452 0
-450 -451 -452 0
450 451 -452 0
-450 -451 453 0
451 -453 0
450 -453 0
27 -233 454 0
233 -454 0
-27 -454 0
453 454 -456 0
-453 456 0
-454 456 0
-15 435 457 0
15 -435 457 0
-15 -435 -457 0
15 435 -457 0
-15 -435 458 0
15 -458 0
435 -458 0
457 458 -460 0
-457 460 0
-458 460 0
-17 -440 461 0
17 440 461 0
-17 440 -461 0
17 -440 -461 0
460 -461 462 0
-460 461 462 0
-460 -461 -462 0
460 461 -462 0
-460 -461 463 0
461 -463 0
460 -463 0
-17 440 464 0
17 -464 0
-440 -464 0
463 464 -466 0
-463 466 0
-464 466 0
-19 -446 467 0
19 446 467 0
-19 446 -467 0
19 -446 -467 0
466 -467 468 0
-466 467 468 0
-466 -467 -468 0
466 467 -468 0
-466 -467 469 0
467 -469 0
466 -469 0
-19 446 470 0
19 -470 0
-446 -470 0
469 470 -472 0
-469 472 0
-470 472 0
-21 -452 473 0
21 452 473 0
-21 452 -473 0
21 -452 -473 0
472 -473 474 0
-472 473 474 0
-472 -473 -474 0
472 473 -474 0
-472 -473 475 0
473 -475 0
472 -475 0
-21 452 476 0
21 -476 0
-452 -476 0
475 476 -478 0
-475 478 0
-476 478 0
-456 478 479 0
456 -478 479 0
-456 -478 -479 0
456 478 -479 0
-456 -478 480 0
456 -480 0
478 -480 0
-456 480 481 0
456 -480 481 0
-456 -480 -481 0
456 480 -481 0
-456 -480 482 0
456 -482 0
480 -482 0
221 -457 483 0
-221 457 483 0
221 457 -483 0
-221 -457 -483 0
223 462 484 0
-223 -462 484 0
223 -462 -484 0
-223 462 -484 0
225 468 485 0
-225 -468 485 0
225 -468 -485 0
-225 468 -485 0
227 474 486 0
-227 -474 486 0
227 -474 -486 0
-227 474 -486 0
479 481 487 0
-479 -487 0
-481 -487 0
-486 -487 488 0
486 -488 0
487 -488 0
-485 -488 489 0
485 -489 0
488 -489 0
-484 -489 490 0
484 -490 0
489 -490 0
-483 -490 491 0
483 -491 0
490 -491 0
-434 -491 492 0
434 -492 0
491 -492 0
389 492 0
493 494 -496 0
-493 496 0
-494 496 0
-493 -494 0
497 496 -499 0
-496 499 0
-497 499 0
-497 -496 0
500 499 -502 0
-499 502 0
-500 502 0
-500 -499 0
503 502 -505 0
-502 505 0
-503 505 0
-503 -502 0
506 505 0
-506 -505 0
221 507 508 0
-221 -507 508 0
-221 507 -508 0
221 -507 -508 0
223 509 510 0
-223 -509 510 0
-223 509 -510 0
223 -509 -510 0
225 511 512 0
-225 -511 512 0
-225 511 -512 0
225 -511 -512 0
227 513 514 0
-227 -513 514 0
-227 513 -514 0
227 -513 -514 0
-512 -514 515 0
512 -515 0
514 -515 0
-510 -515 516 0
510 -516 0
515 -516 0
-508 -516 517 0
508 -517 0
516 -517 0
-493 -517 518 0
493 -518 0
517 -518 0
519 520 521 0
-520 -521 0
-519 -521 0
-524 -521 523 0
524 -523 0
521 -523 0
-527 -523 526 0
527 -526 0
523 -526 0
-518 -526 528 0
518 -528 0
526 -528 0
513 -511 529 0
511 -529 0
-513 -529 0
509 -529 530 0
-509 -530 0
529 -530 0
-507 -530 531 0
507 -531 0
530 -531 0
-494 -531 532 0
494 -532 0
531 -532 0
241 527 533 0
-241 -527 533 0
-241 527 -533 0
241 -527 -533 0
238 524 534 0
-238 -524 534 0
-238 524 -534 0
238 -524 -534 0
234 520 535 0
-234 -520 535 0
-234 520 -535 0
234 -520 -535 0
233 519 536 0
-233 -519 536 0
-233 519 -536 0
233 -519 -536 0
-535 -536 537 0
535 -537 0
536 -537 0
-534 -537 538 0
534 -538 0
537 -538 0
-533 -538 539 0
533 -539 0
538 -539 0
-532 -539 540 0
532 -540 0
539 -540 0
528 540 -542 0
-528 542 0
-540 542 0
519 520 543 0
-520 -543 0
-519 -543 0
524 -543 544 0
-524 -544 0
543 -544 0
527 -544 545 0
-527 -545 0
544 -545 0
-497 -545 546 0
497 -546 0
545 -546 0
221 507 547 0
-221 -507 547 0
-221 507 -547 0
221 -507 -547 0
223 509 548 0
-223 -509 548 0
-223 509 -548 0
223 -509 -548 0
225 511 549 0
-225 -511 549 0
-225 511 -549 0
225 -511 -549 0
227 513 550 0
-227 -513 550 0
-227 513 -550 0
227 -513 -550 0
-549 -550 551 0
549 -551 0
550 -551 0
-548 -551 552 0
548 -552 0
551 -552 0
-547 -552 553 0
547 -553 0
552 -553 0
-546 -553 554 0
546 -554 0
553 -554 0
542 554 -556 0
-542 556 0
-554 556 0
241 527 557 0
-241 -527 557 0
-241 527 -557 0
241 -527 -557 0
238 524 558 0
-238 -524 558 0
-238 524 -558 0
238 -524 -558 0
234 520 559 0
-234 -520 559 0
-234 520 -559 0
234 -520 -559 0
233 519 560 0
-233 -519 560 0
-233 519 -560 0
233 -519 -560 0
-559 -560 561 0
559 -561 0
560 -561 0
-558 -561 562 0
558 -562 0
561 -562 0
-557 -562 563 0
557 -563 0
562 -563 0
-500 -563 564 0
500 -564 0
563 -564 0
513 511 565 0
-511 -565 0
-513 -565 0
509 -565 566 0
-509 -566 0
565 -566 0
507 -566 567 0
-507 -567 0
566 -567 0
-564 -567 568 0
564 -568 0
567 -568 0
556 568 -570 0
-556 570 0
-568 570 0
-221 241 571 0
221 -241 571 0
-221 -241 -571 0
221 241 -571 0
-221 -241 572 0
221 -572 0
241 -572 0
-223 238 573 0
223 -238 573 0
-223 -238 -573 0
223 238 -573 0
572 -573 574 0
-572 573 574 0
-572 -573 -574 0
572 573 -574 0
-572 -573 575 0
573 -575 0
572 -575 0
-223 -238 576 0
223 -576 0
238 -576 0
575 576 -578 0
-575 578 0
-576 578 0
-225 234 579 0
225 -234 579 0
-225 -234 -579 0
225 234 -579 0
578 -579 580 0
-578 579 580 0
-578 -579 -580 0
578 579 -580 0
-578 -579 581 0
579 -581 0
578 -581 0
-225 -234 582 0
225 -582 0
234 -582 0
581 582 -584 0
-581 584 0
-582 584 0
-227 233 585 0
227 -233 585 0
-227 -233 -585 0
227 233 -585 0
584 -585 586 0
-584 585 586 0
-584 -585 -586 0
584 585 -586 0
-584 -585 587 0
585 -587 0
584 -587 0
-227 -233 588 0
227 -588 0
233 -588 0
587 588 -590 0
-587 590 0
-588 590 0
586 590 591 0
-590 -591 0
-586 -591 0
580 -591 592 0
591 -592 0
-580 -592 0
-580 -591 593 0
591 -593 0
580 -593 0
574 -593 594 0
593 -594 0
-574 -594 0
571 -594 595 0
594 -595 0
-571 -595 0
592 595 -597 0
-595 597 0
-592 597 0
-571 -597 598 0
597 -598 0
571 -598 0
-597 598 -600 0
-598 600 0
597 600 0
-574 -597 601 0
597 -601 0
574 -601 0
-580 -597 602 0
597 -602 0
580 -602 0
-597 602 -604 0
-602 604 0
597 604 0
-586 -597 605 0
597 -605 0
586 -605 0
-590 -597 606 0
597 -606 0
590 -606 0
507 600 607 0
-507 -600 607 0
507 -600 -607 0
-507 600 -607 0
509 601 608 0
-509 -601 608 0
509 -601 -608 0
-509 601 -608 0
511 604 609 0
-511 -604 609 0
511 -604 -609 0
-511 604 -609 0
513 605 610 0
-513 -605 610 0
513 -605 -610 0
-513 605 -610 0
606 -610 611 0
610 -611 0
-606 -611 0
-609 -611 612 0
609 -612 0
611 -612 0
-608 -612 613 0
608 -613 0
612 -613 0
-607 -613 614 0
607 -614 0
613 -614 0
-503 -614 615 0
503 -615 0
614 -615 0
-221 -507 616 0
221 507 616 0
221 -507 -616 0
-221 507 -616 0
221 -507 617 0
507 -617 0
-221 -617 0
616 617 -619 0
-616 619 0
-617 619 0
-223 -509 620 0
223 509 620 0
223 -509 -620 0
-223 509 -620 0
619 -620 621 0
-619 620 621 0
-619 -620 -621 0
619 620 -621 0
-619 -620 622 0
620 -622 0
619 -622 0
223 -509 623 0
509 -623 0
-223 -623 0
622 623 -625 0
-622 625 0
-623 625 0
-225 -511 626 0
225 511 626 0
225 -511 -626 0
-225 511 -626 0
625 -626 627 0
-625 626 627 0
-625 -626 -627 0
625 626 -627 0
-625 -626 628 0
626 -628 0
625 -628 0
225 -511 629 0
511 -629 0
-225 -629 0
628 629 -631 0
-628 631 0
-629 631 0
-227 -513 632 0
227 513 632 0
227 -513 -632 0
-227 513 -632 0
631 -632 633 0
-631 632 633 0
-631 -632 -633 0
631 632 -633 0
-631 -632 634 0
632 -634 0
631 -634 0
227 -513 635 0
513 -635 0
-227 -635 0
634 635 -637 0
-634 637 0
-635 637 0
-241 616 638 0
241 -616 638 0
-241 -616 -638 0
241 616 -638 0
-241 -616 639 0
241 -639 0
616 -639 0
638 639 -641 0
-638 641 0
-639 641 0
-238 -621 642 0
238 621 642 0
-238 621 -642 0
238 -621 -642 0
641 -642 643 0
-641 642 643 0
-641 -642 -643 0
641 642 -643 0
-641 -642 644 0
642 -644 0
641 -644 0
-238 621 645 0
238 -645 0
-621 -645 0
644 645 -647 0
-644 647 0
-645 647 0
-234 -627 648 0
234 627 648 0
-234 627 -648 0
234 -627 -648 0
647 -648 649 0
-647 648 649 0
-647 -648 -649 0
647 648 -649 0
-647 -648 650 0
648 -650 0
647 -650 0
-234 627 651 0
234 -651 0
-627 -651 0
650 651 -653 0
-650 653 0
-651 653 0
-233 -633 654 0
233 633 654 0
-233 633 -654 0
233 -633 -654 0
653 -654 655 0
-653 654 655 0
-653 -654 -655 0
653 654 -655 0
-653 -654 656 0
654 -656 0
653 -656 0
-233 633 657 0
233 -657 0
-633 -657 0
656 657 -659 0
-656 659 0
-657 659 0
-637 659 660 0
637 -659 660 0
-637 -659 -660 0
637 659 -660 0
-637 -659 661 0
637 -661 0
659 -661 0
-637 661 662 0
637 -661 662 0
-637 -661 -662 0
637 661 -662 0
-637 -661 663 0
637 -663 0
661 -663 0
527 -638 664 0
-527 638 664 0
527 638 -664 0
-527 -638 -664 0
524 643 665 0
-524 -643 665 0
524 -643 -665 0
-524 643 -665 0
520 649 666 0
-520 -649 666 0
520 -649 -666 0
-520 649 -666 0
519 655 667 0
-519 -655 667 0
519 -655 -667 0
-519 655 -667 0
660 662 668 0
-660 -668 0
-662 -668 0
-667 -668 669 0
667 -669 0
668 -669 0
-666 -669 670 0
666 -670 0
669 -670 0
-665 -670 671 0
665 -671 0
670 -671 0
-664 -671 672 0
664 -672 0
671 -672 0
-615 -672 673 0
615 -673 0
672 -673 0
570 673 -675 0
-570 675 0
-673 675 0
-221 241 676 0
221 -241 676 0
-221 -241 -676 0
221 241 -676 0
-221 -241 677 0
221 -677 0
241 -677 0
-223 238 678 0
223 -238 678 0
-223 -238 -678 0
223 238 -678 0
677 -678 679 0
-677 678 679 0
-677 -678 -679 0
677 678 -679 0
-677 -678 680 0
678 -680 0
677 -680 0
-223 -238 681 0
223 -681 0
238 -681 0
680 681 -683 0
-680 683 0
-681 683 0
-225 234 684 0
225 -234 684 0
-225 -234 -684 0
225 234 -684 0
683 -684 685 0
-683 684 685 0
-683 -684 -685 0
683 684 -685 0
-683 -684 686 0
684 -686 0
683 -686 0
-225 -234 687 0
225 -687 0
234 -687 0
686 687 -689 0
-686 689 0
-687 689 0
-227 233 690 0
227 -233 690 0
-227 -233 -690 0
227 233 -690 0
689 -690 691 0
-689 690 691 0
-689 -690 -691 0
689 690 -691 0
-689 -690 692 0
690 -692 0
689 -692 0
-227 -233 693 0
227 -693 0
233 -693 0
692 693 -695 0
-692 695 0
-693 695 0
691 695 696 0
-695 -696 0
-691 -696 0
685 -696 697 0
696 -697 0
-685 -697 0
679 -697 698 0
697 -698 0
-679 -698 0
-679 -697 699 0
697 -699 0
679 -699 0
676 -699 700 0
699 -700 0
-676 -700 0
698 700 -702 0
-700 702 0
-698 702 0
-676 -702 703 0
702 -703 0
676 -703 0
-702 703 -705 0
-703 705 0
702 705 0
-679 -702 706 0
702 -706 0
679 -706 0
-702 706 -708 0
-706 708 0
702 708 0
-685 -702 709 0
702 -709 0
685 -709 0
-691 -702 710 0
702 -710 0
691 -710 0
-695 -702 711 0
702 -711 0
695 -711 0
527 705 712 0
-527 -705 712 0
527 -705 -712 0
-527 705 -712 0
524 708 713 0
-524 -708 713 0
524 -708 -713 0
-524 708 -713 0
520 709 714 0
-520 -709 714 0
520 -709 -714 0
-520 709 -714 0
519 710 715 0
-519 -710 715 0
519 -710 -715 0
-519 710 -715 0
711 -715 716 0
715 -716 0
-711 -716 0
-714 -716 717 0
714 -717 0
716 -717 0
-713 -717 718 0
713 -718 0
717 -718 0
-712 -718 719 0
712 -719 0
718 -719 0
-506 -719 720 0
506 -720 0
719 -720 0
-241 -527 721 0
241 527 721 0
241 -527 -721 0
-241 527 -721 0
241 -527 722 0
527 -722 0
-241 -722 0
721 722 -724 0
-721 724 0
-722 724 0
-238 -524 725 0
238 524 725 0
238 -524 -725 0
-238 524 -725 0
724 -725 726 0
-724 725 726 0
-724 -725 -726 0
724 725 -726 0
-724 -725 727 0
725 -727 0
724 -727 0
238 -524 728 0
524 -728 0
-238 -728 0
727 728 -730 0
-727 730 0
-728 730 0
-234 -520 731 0
234 520 731 0
234 -520 -731 0
-234 520 -731 0
730 -731 732 0
-730 731 732 0
-730 -731 -732 0
730 731 -732 0
-730 -731 733 0
731 -733 0
730 -733 0
234 -520 734 0
520 -734 0
-234 -734 0
733 734 -736 0
-733 736 0
-734 736 0
-233 -519 737 0
233 519 737 0
233 -519 -737 0
-233 519 -737 0
736 -737 738 0
-736 737 738 0
-736 -737 -738 0
736 737 -738 0
-736 -737 739 0
737 -739 0
736 -739 0
233 -519 740 0
519 -740 0
-233 -740 0
739 740 -742 0
-739 742 0
-740 742 0
-221 721 743 0
221 -721 743 0
-221 -721 -743 0
221 721 -743 0
-221 -721 744 0
221 -744 0
721 -744 0
743 744 -746 0
-743 746 0
-744 746 0
-223 -726 747 0
223 726 747 0
-223 726 -747 0
223 -726 -747 0
746 -747 748 0
-746 747 748 0
-746 -747 -748 0
746 747 -748 0
-746 -747 749 0
747 -749 0
746 -749 0
-223 726 750 0
223 -750 0
-726 -750 0
749 750 -752 0
-749 752 0
-750 752 0
-225 -732 753 0
225 732 753 0
-225 732 -753 0
225 -732 -753 0
752 -753 754 0
-752 753 754 0
-752 -753 -754 0
752 753 -754 0
-752 -753 755 0
753 -755 0
752 -755 0
-225 732 756 0
225 -756 0
-732 -756 0
755 756 -758 0
-755 758 0
-756 758 0
-227 -738 759 0
227 738 759 0
-227 738 -759 0
227 -738 -759 0
758 -759 760 0
-758 759 760 0
-758 -759 -760 0
758 759 -760 0
-758 -759 761 0
759 -761 0
758 -761 0
-227 738 762 0
227 -762 0
-738 -762 0
761 762 -764 0
-761 764 0
-762 764 0
-742 764 765 0
742 -764 765 0
-742 -764 -765 0
742 764 -765 0
-742 -764 766 0
742 -766 0
764 -766 0
-742 766 767 0
742 -766 767 0
-742 -766 -767 0
742 766 -767 0
-742 -766 768 0
742 -768 0
766 -768 0
507 -743 769 0
-507 743 769 0
507 743 -769 0
-507 -743 -769 0
509 748 770 0
-509 -748 770 0
509 -748 -770 0
-509 748 -770 0
511 754 771 0
-511 -754 771 0
511 -754 -771 0
-511 754 -771 0
513 760 772 0
-513 -760 772 0
513 -760 -772 0
-513 760 -772 0
765 767 773 0
-765 -773 0
-767 -773 0
-772 -773 774 0
772 -774 0
773 -774 0
-771 -774 775 0
771 -775 0
774 -775 0
-770 -775 776 0
770 -776 0
775 -776 0
-769 -776 777 0
769 -777 0
776 -777 0
-720 -777 778 0
720 -778 0
777 -778 0
675 778 0
779 780 -782 0
-779 782 0
-780 782 0
-779 -780 0
783 782 -785 0
-782 785 0
-783 785 0
-783 -782 0
786 785 -788 0
-785 788 0
-786 788 0
-786 -785 0
789 788 -791 0
-788 791 0
-789 791 0
-789 -788 0
792 791 0
-792 -791 0
507 793 794 0
-507 -793 794 0
-507 793 -794 0
507 -793 -794 0
509 795 796 0
-509 -795 796 0
-509 795 -796 0
509 -795 -796 0
511 797 798 0
-511 -797 798 0
-511 797 -798 0
511 -797 -798 0
513 799 800 0
-513 -799 800 0
-513 799 -800 0
513 -799 -800 0
-798 -800 801 0
798 -801 0
800 -801 0
-796 -801 802 0
796 -802 0
801 -802 0
-794 -802 803 0
794 -803 0
802 -803 0
-779 -803 804 0
779 -804 0
803 -804 0
805 806 807 0
-806 -807 0
-805 -807 0
-810 -807 809 0
810 -809 0
807 -809 0
-813 -809 812 0
813 -812 0
809 -812 0
-804 -812 814 0
804 -814 0
812 -814 0
799 -797 815 0
797 -815 0
-799 -815 0
795 -815 816 0
-795 -816 0
815 -816 0
-793 -816 817 0
793 -817 0
816 -817 0
-780 -817 818 0
780 -818 0
817 -818 0
527 813 819 0
-527 -813 819 0
-527 813 -819 0
527 -813 -819 0
524 810 820 0
-524 -810 820 0
-524 810 -820 0
524 -810 -820 0
520 806 821 0
-520 -806 821 0
-520 806 -821 0
520 -806 -821 0
519 805 822 0
-519 -805 822 0
-519 805 -822 0
519 -805 -822 0
-821 -822 823 0
821 -823 0
822 -823 0
-820 -823 824 0
820 -824 0
823 -824 0
-819 -824 825 0
819 -825 0
824 -825 0
-818 -825 826 0
818 -826 0
825 -826 0
814 826 -828 0
-814 828 0
-826 828 0
805 806 829 0
-806 -829 0
-805 -829 0
810 -829 830 0
-810 -830 0
829 -830 0
813 -830 831 0
-813 -831 0
830 -831 0
-783 -831 832 0
783 -832 0
831 -832 0
507 793 833 0
-507 -793 833 0
-507 793 -833 0
507 -793 -833 0
509 795 834 0
-509 -795 834 0
-509 795 -834 0
509 -795 -834 0
511 797 835 0
-511 -797 835 0
-511 797 -835 0
511 -797 -835 0
513 799 836 0
-513 -799 836 0
-513 799 -836 0
513 -799 -836 0
-835 -836 837 0
835 -837 0
836 -837 0
-834 -837 838 0
834 -838 0
837 -838 0
-833 -838 839 0
833 -839 0
838 -839 0
-832 -839 840 0
832 -840 0
839 -840 0
828 840 -842 0
-828 842 0
-840 842 0
527 813 843 0
-527 -813 843 0
-527 813 -843 0
527 -813 -843 0
524 810 844 0
-524 -810 844 0
-524 810 -844 0
524 -810 -844 0
520 806 845 0
-520 -806 845 0
-520 806 -845 0
520 -806 -845 0
519 805 846 0
-519 -805 846 0
-519 805 -846 0
519 -805 -846 0
-845 -846 847 0
845 -847 0
846 -847 0
-844 -847 848 0
844 -848 0
847 -848 0
-843 -848 849 0
843 -849 0
848 -849 0
-786 -849 850 0
786 -850 0
849 -850 0
799 797 851 0
-797 -851 0
-799 -851 0
795 -851 852 0
-795 -852 0
851 -852 0
793 -852 853 0
-793 -853 0
852 -853 0
-850 -853 854 0
850 -854 0
853 -854 0
842 854 -856 0
-842 856 0
-854 856 0
-507 527 857 0
507 -527 857 0
-507 -527 -857 0
507 527 -857 0
-507 -527 858 0
507 -858 0
527 -858 0
-509 524 859 0
509 -524 859 0
-509 -524 -859 0
509 524 -859 0
858 -859 860 0
-858 859 860 0
-858 -859 -860 0
858 859 -860 0
-858 -859 861 0
859 -861 0
858 -861 0
-509 -524 862 0
509 -862 0
524 -862 0
861 862 -864 0
-861 864 0
-862 864 0
-511 520 865 0
511 -520 865 0
-511 -520 -865 0
511 520 -865 0
864 -865 866 0
-864 865 866 0
-864 -865 -866 0
864 865 -866 0
-864 -865 867 0
865 -867 0
864 -867 0
-511 -520 868 0
511 -868 0
520 -868 0
867 868 -870 0
-867 870 0
-868 870 0
-513 519 871 0
513 -519 871 0
-513 -519 -871 0
513 519 -871 0
870 -871 872 0
-870 871 872 0
-870 -871 -872 0
870 871 -872 0
-870 -871 873 0
871 -873 0
870 -873 0
-513 -519 874 0
513 -874 0
519 -874 0
873 874 -876 0
-873 876 0
-874 876 0
872 876 877 0
-876 -877 0
-872 -877 0
866 -877 878 0
877 -878 0
-866 -878 0
-866 -877 879 0
877 -879 0
866 -879 0
860 -879 880 0
879 -880 0
-860 -880 0
857 -880 881 0
880 -881 0
-857 -881 0
878 881 -883 0
-881 883 0
-878 883 0
-857 -883 884 0
883 -884 0
857 -884 0
-883 884 -886 0
-884 886 0
883 886 0
-860 -883 887 0
883 -887 0
860 -887 0
-866 -883 888 0
883 -888 0
866 -888 0
-883 888 -890 0
-888 890 0
883 890 0
-872 -883 891 0
883 -891 0
872 -891 0
-876 -883 892 0
883 -892 0
876 -892 0
793 886 893 0
-793 -886 893 0
793 -886 -893 0
-793 886 -893 0
795 887 894 0
-795 -887 894 0
795 -887 -894 0
-795 887 -894 0
797 890 895 0
-797 -890 895 0
797 -890 -895 0
-797 890 -895 0
799 891 896 0
-799 -891 896 0
799 -891 -896 0
-799 891 -896 0
892 -896 897 0
896 -897 0
-892 -897 0
-895 -897 898 0
895 -898 0
897 -898 0
-894 -898 899 0
894 -899 0
898 -899 0
-893 -899 900 0
893 -900 0
899 -900 0
-789 -900 901 0
789 -901 0
900 -901 0
-507 -793 902 0
507 793 902 0
507 -793 -902 0
-507 793 -902 0
507 -793 903 0
793 -903 0
-507 -903 0
902 903 -905 0
-902 905 0
-903 905 0
-509 -795 906 0
509 795 906 0
509 -795 -906 0
-509 795 -906 0
905 -906 907 0
-905 906 907 0
-905 -906 -907 0
905 906 -907 0
-905 -906 908 0
906 -908 0
905 -908 0
509 -795 909 0
795 -909 0
-509 -909 0
908 909 -911 0
-908 911 0
-909 911 0
-511 -797 912 0
511 797 912 0
511 -797 -912 0
-511 797 -912 0
911 -912 913 0
-911 912 913 0
-911 -912 -913 0
911 912 -913 0
-911 -912 914 0
912 -914 0
911 -914 0
511 -797 915 0
797 -915 0
-511 -915 0
914 915 -917 0
-914 917 0
-915 917 0
-513 -799 918 0
513 799 918 0
513 -799 -918 0
-513 799 -918 0
917 -918 919 0
-917 918 919 0
-917 -918 -919 0
917 918 -919 0
-917 -918 920 0
918 -920 0
917 -920 0
513 -799 921 0
799 -921 0
-513 -921 0
920 921 -923 0
-920 923 0
-921 923 0
-527 902 924 0
527 -902 924 0
-527 -902 -924 0
527 902 -924 0
-527 -902 925 0
527 -925 0
902 -925 0
924 925 -927 0
-924 927 0
-925 927 0
-524 -907 928 0
524 907 928 0
-524 907 -928 0
524 -907 -928 0
927 -928 929 0
-927 928 929 0
-927 -928 -929 0
927 928 -929 0
-927 -928 930 0
928 -930 0
927 -930 0
-524 907 931 0
524 -931 0
-907 -931 0
930 931 -933 0
-930 933 0
-931 933 0
-520 -913 934 0
520 913 934 0
-520 913 -934 0
520 -913 -934 0
933 -934 935 0
-933 934 935 0
-933 -934 -935 0
933 934 -935 0
-933 -934 936 0
934 -936 0
933 -936 0
-520 913 937 0
520 -937 0
-913 -937 0
936 937 -939 0
-936 939 0
-937 939 0
-519 -919 940 0
519 919 940 0
-519 919 -940 0
519 -919 -940 0
939 -940 941 0
-939 940 941 0
-939 -940 -941 0
939 940 -941 0
-939 -940 942 0
940 -942 0
939 -942 0
-519 919 943 0
519 -943 0
-919 -943 0
942 943 -945 0
-942 945 0
-943 945 0
-923 945 946 0
923 -945 946 0
-923 -945 -946 0
923 945 -946 0
-923 -945 947 0
923 -947 0
945 -947 0
-923 947 948 0
923 -947 948 0
-923 -947 -948 0
923 947 -948 0
-923 -947 949 0
923 -949 0
947 -949 0
813 -924 950 0
-813 924 950 0
813 924 -950 0
-813 -924 -950 0
810 929 951 0
-810 -929 951 0
810 -929 -951 0
-810 929 -951 0
806 935 952 0
-806 -935 952 0
806 -935 -952 0
-806 935 -952 0
805 941 953 0
-805 -941 953 0
805 -941 -953 0
-805 941 -953 0
946 948 954 0
-946 -954 0
-948 -954 0
-953 -954 955 0
953 -955 0
954 -955 0
-952 -955 956 0
952 -956 0
955 -956 0
-951 -956 957 0
951 -957 0
956 -957 0
-950 -957 958 0
950 -958 0
957 -958 0
-901 -958 959 0
901 -959 0
958 -959 0
856 959 -961 0
-856 961 0
-959 961 0
-507 527 962 0
507 -527 962 0
-507 -527 -962 0
507 527 -962 0
-507 -527 963 0
507 -963 0
527 -963 0
-509 524 964 0
509 -524 964 0
-509 -524 -964 0
509 524 -964 0
963 -964 965 0
-963 964 965 0
-963 -964 -965 0
963 964 -965 0
-963 -964 966 0
964 -966 0
963 -966 0
-509 -524 967 0
509 -967 0
524 -967 0
966 967 -969 0
-966 969 0
-967 969 0
-511 520 970 0
511 -520 970 0
-511 -520 -970 0
511 520 -970 0
969 -970 971 0
-969 970 971 0
-969 -970 -971 0
969 970 -971 0
-969 -970 972 0
970 -972 0
969 -972 0
-511 -520 973 0
511 -973 0
520 -973 0
972 973 -975 0
-972 975 0
-973 975 0
-513 519 976 0
513 -519 976 0
-513 -519 -976 0
513 519 -976 0
975 -976 977 0
-975 976 977 0
-975 -976 -977 0
975 976 -977 0
-975 -976 978 0
976 -978 0
975 -978 0
-513 -519 979 0
513 -979 0
519 -979 0
978 979 -981 0
-978 981 0
-979 981 0
977 981 982 0
-981 -982 0
-977 -982 0
971 -982 983 0
982 -983 0
-971 -983 0
965 -983 984 0
983 -984 0
-965 -984 0
-965 -983 985 0
983 -985 0
965 -985 0
962 -985 986 0
985 -986 0
-962 -986 0
984 986 -988 0
-986 988 0
-984 988 0
-962 -988 989 0
988 -989 0
962 -989 0
-988 989 -991 0
-989 991 0
988 991 0
-965 -988 992 0
988 -992 0
965 -992 0
-988 992 -994 0
-992 994 0
988 994 0
-971 -988 995 0
988 -995 0
971 -995 0
-977 -988 996 0
988 -996 0
977 -996 0
-981 -988 997 0
988 -997 0
981 -997 0
813 991 998 0
-813 -991 998 0
813 -991 -998 0
-813 991 -998 0
810 994 999 0
-810 -994 999 0
810 -994 -999 0
-810 994 -999 0
806 995 1000 0
-806 -995 1000 0
806 -995 -1000 0
-806 995 -1000 0
805 996 1001 0
-805 -996 1001 0
805 -996 -1001 0
-805 996 -1001 0
997 -1001 1002 0
1001 -1002 0
-997 -1002 0
-1000 -1002 1003 0
1000 -1003 0
1002 -1003 0
-999 -1003 1004 0
999 -1004 0
1003 -1004 0
-998 -1004 1005 0
998 -1005 0
1004 -1005 0
-792 -1005 1006 0
792 -1006 0
1005 -1006 0
-527 -813 1007 0
527 813 1007 0
527 -813 -1007 0
-527 813 -1007 0
527 -813 1008 0
813 -1008 0
-527 -1008 0
1007 1008 -1010 0
-1007 1010 0
-1008 1010 0
-524 -810 1011 0
524 810 1011 0
524 -810 -1011 0
-524 810 -1011 0
1010 -1011 1012 0
-1010 1011 1012 0
-1010 -1011 -1012 0
1010 1011 -1012 0
-1010 -1011 1013 0
1011 -1013 0
1010 -1013 0
524 -810 1014 0
810 -1014 0
-524 -1014 0
1013 1014 -1016 0
-1013 1016 0
-1014 1016 0
-520 -806 1017 0
520 806 1017 0
520 -806 -1017 0
-520 806 -1017 0
1016 -1017 1018 0
-1016 1017 1018 0
-1016 -1017 -1018 0
1016 1017 -1018 0
-1016 -1017 1019 0
1017 -1019 0
1016 -1019 0
520 -806 1020 0
806 -1020 0
-520 -1020 0
1019 1020 -1022 0
-1019 1022 0
-1020 1022 0
-519 -805 1023 0
519 805 1023 0
519 -805 -1023 0
-519 805 -1023 0
1022 -1023 1024 0
-1022 1023 1024 0
-1022 -1023 -1024 0
1022 1023 -1024 0
-1022 -1023 1025 0
1023 -1025 0
1022 -1025 0
519 -805 1026 0
805 -1026 0
-519 -1026 0
1025 1026 -1028 0
-1025 1028 0
-1026 1028 0
-507 1007 1029 0
507 -1007 1029 0
-507 -1007 -1029 0
507 1007 -1029 0
-507 -1007 1030 0
507 -1030 0
1007 -1030 0
1029 1030 -1032 0
-1029 1032 0
-1030 1032 0
-509 -1012 1033 0
509 1012 1033 0
-509 1012 -1033 0
509 -1012 -1033 0
1032 -1033 1034 0
-1032 1033 1034 0
-1032 -1033 -1034 0
1032 1033 -1034 0
-1032 -1033 1035 0
1033 -1035 0
1032 -1035 0
-509 1012 1036 0
509 -1036 0
-1012 -1036 0
1035 1036 -1038 0
-1035 1038 0
-1036 1038 0
-511 -1018 1039 0
511 1018 1039 0
-511 1018 -1039 0
511 -1018 -1039 0
1038 -1039 1040 0
-1038 1039 1040 0
-1038 -1039 -1040 0
1038 1039 -1040 0
-1038 -1039 1041 0
1039 -1041 0
1038 -1041 0
-511 1018 1042 0
511 -1042 0
-1018 -1042 0
1041 1042 -1044 0
-1041 1044 0
-1042 1044 0
-513 -1024 1045 0
513 1024 1045 0
-513 1024 -1045 0
513 -1024 -1045 0
1044 -1045 1046 0
-1044 1045 1046 0
-1044 -1045 -1046 0
1044 1045 -1046 0
-1044 -1045 1047 0
1045 -1047 0
1044 -1047 0
-513 1024 1048 0
513 -1048 0
-1024 -1048 0
1047 1048 -1050 0
-1047 1050 0
-1048 1050 0
-1028 1050 1051 0
1028 -1050 1051 0
-1028 -1050 -1051 0
1028 1050 -1051 0
-1028 -1050 1052 0
1028 -1052 0
1050 -1052 0
-1028 1052 1053 0
1028 -1052 1053 0
-1028 -1052 -1053 0
1028 1052 -1053 0
-1028 -1052 1054 0
1028 -1054 0
1052 -1054 0
793 -1029 1055 0
-793 1029 1055 0
793 1029 -1055 0
-793 -1029 -1055 0
795 1034 1056 0
-795 -1034 1056 0
795 -1034 -1056 0
-795 1034 -1056 0
797 1040 1057 0
-797 -1040 1057 0
797 -1040 -1057 0
-797 1040 -1057 0
799 1046 1058 0
-799 -1046 1058 0
799 -1046 -1058 0
-799 1046 -1058 0
1051 1053 1059 0
-1051 -1059 0
-1053 -1059 0
-1058 -1059 1060 0
1058 -1060 0
1059 -1060 0
-1057 -1060 1061 0
1057 -1061 0
1060 -1061 0
-1056 -1061 1062 0
1056 -1062 0
1061 -1062 0
-1055 -1062 1063 0
1055 -1063 0
1062 -1063 0
-1006 -1063 1064 0
1006 -1064 0
1063 -1064 0
961 1064 0
1065 1066 -1068 0
-1065 1068 0
-1066 1068 0
-1065 -1066 0
1069 1068 -1071 0
-1068 1071 0
-1069 1071 0
-1069 -1068 0
1072 1071 -1074 0
-1071 1074 0
-1072 1074 0
-1072 -1071 0
1075 1074 -1077 0
-1074 1077 0
-1075 1077 0
-1075 -1074 0
1078 1077 0
-1078 -1077 0
793 1079 0
-793 -1079 0
795 1080 0
-795 -1080 0
-797 1081 0
797 -1081 0
799 1082 0
-799 -1082 0
-1081 -1082 1083 0
1081 -1083 0
1082 -1083 0
-1080 -1083 1084 0
1080 -1084 0
1083 -1084 0
-1079 -1084 1085 0
1079 -1085 0
1084 -1085 0
-1065 -1085 1086 0
1065 -1086 0
1085 -1086 0
1087 1088 1089 0
-1088 -1089 0
-1087 -1089 0
-1092 -1089 1091 0
1092 -1091 0
1089 -1091 0
-1095 -1091 1094 0
1095 -1094 0
1091 -1094 0
-1086 -1094 1096 0
1086 -1096 0
1094 -1096 0
813 1095 1097 0
-813 -1095 1097 0
-813 1095 -1097 0
813 -1095 -1097 0
810 1092 1098 0
-810 -1092 1098 0
-810 1092 -1098 0
810 -1092 -1098 0
806 1088 1099 0
-806 -1088 1099 0
-806 1088 -1099 0
806 -1088 -1099 0
805 1087 1100 0
-805 -1087 1100 0
-805 1087 -1100 0
805 -1087 -1100 0
-1099 -1100 1101 0
1099 -1101 0
1100 -1101 0
-1098 -1101 1102 0
1098 -1102 0
1101 -1102 0
-1097 -1102 1103 0
1097 -1103 0
1102 -1103 0
1096 -1105 0
-1096 1105 0
1087 1088 1106 0
-1088 -1106 0
-1087 -1106 0
1092 -1106 1107 0
-1092 -1107 0
1106 -1107 0
1095 -1107 1108 0
-1095 -1108 0
1107 -1108 0
-1069 -1108 1109 0
1069 -1109 0
1108 -1109 0
793 1110 0
-793 -1110 0
795 1111 0
-795 -1111 0
-797 1112 0
797 -1112 0
799 1113 0
-799 -1113 0
-1112 -1113 1114 0
1112 -1114 0
1113 -1114 0
-1111 -1114 1115 0
1111 -1115 0
1114 -1115 0
-1110 -1115 1116 0
1110 -1116 0
1115 -1116 0
-1109 -1116 1117 0
1109 -1117 0
1116 -1117 0
1105 1117 -1119 0
-1105 1119 0
-1117 1119 0
813 1095 1120 0
-813 -1095 1120 0
-813 1095 -1120 0
813 -1095 -1120 0
810 1092 1121 0
-810 -1092 1121 0
-810 1092 -1121 0
810 -1092 -1121 0
806 1088 1122 0
-806 -1088 1122 0
-806 1088 -1122 0
806 -1088 -1122 0
805 1087 1123 0
-805 -1087 1123 0
-805 1087 -1123 0
805 -1087 -1123 0
-1122 -1123 1124 0
1122 -1124 0
1123 -1124 0
-1121 -1124 1125 0
1121 -1125 0
1124 -1125 0
-1120 -1125 1126 0
1120 -1126 0
1125 -1126 0
-1072 -1126 1127 0
1072 -1127 0
1126 -1127 0
1119 -1129 0
-1119 1129 0
-793 813 1130 0
793 -813 1130 0
-793 -813 -1130 0
793 813 -1130 0
-793 -813 1131 0
793 -1131 0
813 -1131 0
-795 810 1132 0
795 -810 1132 0
-795 -810 -1132 0
795 810 -1132 0
1131 -1132 1133 0
-1131 1132 1133 0
-1131 -1132 -1133 0
1131 1132 -1133 0
-1131 -1132 1134 0
1132 -1134 0
1131 -1134 0
-795 -810 1135 0
795 -1135 0
810 -1135 0
1134 1135 -1137 0
-1134 1137 0
-1135 1137 0
-797 806 1138 0
797 -806 1138 0
-797 -806 -1138 0
797 806 -1138 0
1137 -1138 1139 0
-1137 1138 1139 0
-1137 -1138 -1139 0
1137 1138 -1139 0
-1137 -1138 1140 0
1138 -1140 0
1137 -1140 0
-797 -806 1141 0
797 -1141 0
806 -1141 0
1140 1141 -1143 0
-1140 1143 0
-1141 1143 0
-799 805 1144 0
799 -805 1144 0
-799 -805 -1144 0
799 805 -1144 0
1143 -1144 1145 0
-1143 1144 1145 0
-1143 -1144 -1145 0
1143 1144 -1145 0
-1143 -1144 1146 0
1144 -1146 0
1143 -1146 0
-799 -805 1147 0
799 -1147 0
805 -1147 0
1146 1147 -1149 0
-1146 1149 0
-1147 1149 0
1145 1149 1150 0
-1149 -1150 0
-1145 -1150 0
1139 -1150 1151 0
1150 -1151 0
-1139 -1151 0
-1139 -1150 1152 0
1150 -1152 0
1139 -1152 0
1133 -1152 1153 0
1152 -1153 0
-1133 -1153 0
1130 -1153 1154 0
1153 -1154 0
-1130 -1154 0
1151 1154 -1156 0
-1154 1156 0
-1151 1156 0
-1130 -1156 1157 0
1156 -1157 0
1130 -1157 0
-1156 1157 -1159 0
-1157 1159 0
1156 1159 0
-1133 -1156 1160 0
1156 -1160 0
1133 -1160 0
-1139 -1156 1161 0
1156 -1161 0
1139 -1161 0
-1156 1161 -1163 0
-1161 1163 0
1156 1163 0
-1145 -1156 1164 0
1156 -1164 0
1145 -1164 0
-1149 -1156 1165 0
1156 -1165 0
1149 -1165 0
1159 1166 0
-1159 -1166 0
1160 1167 0
-1160 -1167 0
-1163 1168 0
1163 -1168 0
1164 1169 0
-1164 -1169 0
1165 -1169 1170 0
1169 -1170 0
-1165 -1170 0
-1168 -1170 1171 0
1168 -1171 0
1170 -1171 0
-1167 -1171 1172 0
1167 -1172 0
1171 -1172 0
-1166 -1172 1173 0
1166 -1173 0
1172 -1173 0
-1075 -1173 1174 0
1075 -1174 0
1173 -1174 0
793 1175 0
-793 -1175 0
1175 -1177 0
-1175 1177 0
795 1178 0
-795 -1178 0
1177 -1178 1179 0
-1177 1178 1179 0
-1177 -1178 -1179 0
1177 1178 -1179 0
-1177 -1178 1180 0
1178 -1180 0
1177 -1180 0
1180 -1182 0
-1180 1182 0
-797 1183 0
797 -1183 0
1182 -1183 1184 0
-1182 1183 1184 0
-1182 -1183 -1184 0
1182 1183 -1184 0
-1182 -1183 1185 0
1183 -1185 0
1182 -1185 0
797 1186 0
-797 -1186 0
1185 1186 -1188 0
-1185 1188 0
-1186 1188 0
799 1189 0
-799 -1189 0
1188 -1189 1190 0
-1188 1189 1190 0
-1188 -1189 -1190 0
1188 1189 -1190 0
-1188 -1189 1191 0
1189 -1191 0
1188 -1191 0
1191 -1193 0
-1191 1193 0
-813 1175 1194 0
813 -1175 1194 0
-813 -1175 -1194 0
813 1175 -1194 0
-813 -1175 1195 0
813 -1195 0
1175 -1195 0
1194 1195 -1197 0
-1194 1197 0
-1195 1197 0
-810 -1179 1198 0
810 1179 1198 0
-810 1179 -1198 0
810 -1179 -1198 0
1197 -1198 1199 0
-1197 1198 1199 0
-1197 -1198 -1199 0
1197 1198 -1199 0
-1197 -1198 1200 0
1198 -1200 0
1197 -1200 0
-810 1179 1201 0
810 -1201 0
-1179 -1201 0
1200 1201 -1203 0
-1200 1203 0
-1201 1203 0
-806 -1184 1204 0
806 1184 1204 0
-806 1184 -1204 0
806 -1184 -1204 0
1203 -1204 1205 0
-1203 1204 1205 0
-1203 -1204 -1205 0
1203 1204 -1205 0
-1203 -1204 1206 0
1204 -1206 0
1203 -1206 0
-806 1184 1207 0
806 -1207 0
-1184 -1207 0
1206 1207 -1209 0
-1206 1209 0
-1207 1209 0
-805 -1190 1210 0
805 1190 1210 0
-805 1190 -1210 0
805 -1190 -1210 0
1209 -1210 1211 0
-1209 1210 1211 0
-1209 -1210 -1211 0
1209 1210 -1211 0
-1209 -1210 1212 0
1210 -1212 0
1209 -1212 0
-805 1190 1213 0
805 -1213 0
-1190 -1213 0
1212 1213 -1215 0
-1212 1215 0
-1213 1215 0
-1193 1215 1216 0
1193 -1215 1216 0
-1193 -1215 -1216 0
1193 1215 -1216 0
-1193 -1215 1217 0
1193 -1217 0
1215 -1217 0
-1193 1217 1218 0
1193 -1217 1218 0
-1193 -1217 -1218 0
1193 1217 -1218 0
-1193 -1217 1219 0
1193 -1219 0
1217 -1219 0
1095 -1194 1220 0
-1095 1194 1220 0
1095 1194 -1220 0
-1095 -1194 -1220 0
1092 1199 1221 0
-1092 -1199 1221 0
1092 -1199 -1221 0
-1092 1199 -1221 0
1088 1205 1222 0
-1088 -1205 1222 0
1088 -1205 -1222 0
-1088 1205 -1222 0
1087 1211 1223 0
-1087 -1211 1223 0
1087 -1211 -1223 0
-1087 1211 -1223 0
1216 1218 1224 0
-1216 -1224 0
-1218 -1224 0
-1223 -1224 1225 0
1223 -1225 0
1224 -1225 0
-1222 -1225 1226 0
1222 -1226 0
1225 -1226 0
-1221 -1226 1227 0
1221 -1227 0
1226 -1227 0
-1220 -1227 1228 0
1220 -1228 0
1227 -1228 0
-1174 -1228 1229 0
1174 -1229 0
1228 -1229 0
1129 1229 -1231 0
-1129 1231 0
-1229 1231 0
-793 813 1232 0
793 -813 1232 0
-793 -813 -1232 0
793 813 -1232 0
-793 -813 1233 0
793 -1233 0
813 -1233 0
-795 810 1234 0
795 -810 1234 0
-795 -810 -1234 0
795 810 -1234 0
1233 -1234 1235 0
-1233 1234 1235 0
-1233 -1234 -1235 0
1233 1234 -1235 0
-1233 -1234 1236 0
1234 -1236 0
1233 -1236 0
-795 -810 1237 0
795 -1237 0
810 -1237 0
1236 1237 -1239 0
-1236 1239 0
-1237 1239 0
-797 806 1240 0
797 -806 1240 0
-797 -806 -1240 0
797 806 -1240 0
1239 -1240 1241 0
-1239 1240 1241 0
-1239 -1240 -1241 0
1239 1240 -1241 0
-1239 -1240 1242 0
1240 -1242 0
1239 -1242 0
-797 -806 1243 0
797 -1243 0
806 -1243 0
1242 1243 -1245 0
-1242 1245 0
-1243 1245 0
-799 805 1246 0
799 -805 1246 0
-799 -805 -1246 0
799 805 -1246 0
1245 -1246 1247 0
-1245 1246 1247 0
-1245 -1246 -1247 0
1245 1246 -1247 0
-1245 -1246 1248 0
1246 -1248 0
1245 -1248 0
-799 -805 1249 0
799 -1249 0
805 -1249 0
1248 1249 -1251 0
-1248 1251 0
-1249 1251 0
1247 1251 1252 0
-1251 -1252 0
-1247 -1252 0
1241 -1252 1253 0
1252 -1253 0
-1241 -1253 0
1235 -1253 1254 0
1253 -1254 0
-1235 -1254 0
-1235 -1253 1255 0
1253 -1255 0
1235 -1255 0
1232 -1255 1256 0
1255 -1256 0
-1232 -1256 0
1254 1256 -1258 0
-1256 1258 0
-1254 1258 0
-1232 -1258 1259 0
1258 -1259 0
1232 -1259 0
-1258 1259 -1261 0
-1259 1261 0
1258 1261 0
-1235 -1258 1262 0
1258 -1262 0
1235 -1262 0
-1258 1262 -1264 0
-1262 1264 0
1258 1264 0
-1241 -1258 1265 0
1258 -1265 0
1241 -1265 0
-1247 -1258 1266 0
1258 -1266 0
1247 -1266 0
-1251 -1258 1267 0
1258 -1267 0
1251 -1267 0
1095 1261 1268 0
-1095 -1261 1268 0
1095 -1261 -1268 0
-1095 1261 -1268 0
1092 1264 1269 0
-1092 -1264 1269 0
1092 -1264 -1269 0
-1092 1264 -1269 0
1088 1265 1270 0
-1088 -1265 1270 0
1088 -1265 -1270 0
-1088 1265 -1270 0
1087 1266 1271 0
-1087 -1266 1271 0
1087 -1266 -1271 0
-1087 1266 -1271 0
1267 -1271 1272 0
1271 -1272 0
-1267 -1272 0
-1270 -1272 1273 0
1270 -1273 0
1272 -1273 0
-1269 -1273 1274 0
1269 -1274 0
1273 -1274 0
-1268 -1274 1275 0
1268 -1275 0
1274 -1275 0
-1078 -1275 1276 0
1078 -1276 0
1275 -1276 0
-813 -1095 1277 0
813 1095 1277 0
813 -1095 -1277 0
-813 1095 -1277 0
813 -1095 1278 0
1095 -1278 0
-813 -1278 0
1277 1278 -1280 0
-1277 1280 0
-1278 1280 0
-810 -1092 1281 0
810 1092 1281 0
810 -1092 -1281 0
-810 1092 -1281 0
1280 -1281 1282 0
-1280 1281 1282 0
-1280 -1281 -1282 0
1280 1281 -1282 0
-1280 -1281 1283 0
1281 -1283 0
1280 -1283 0
810 -1092 1284 0
1092 -1284 0
-810 -1284 0
1283 1284 -1286 0
-1283 1286 0
-1284 1286 0
-806 -1088 1287 0
806 1088 1287 0
806 -1088 -1287 0
-806 1088 -1287 0
1286 -1287 1288 0
-1286 1287 1288 0
-1286 -1287 -1288 0
1286 1287 -1288 0
-1286 -1287 1289 0
1287 -1289 0
1286 -1289 0
806 -1088 1290 0
1088 -1290 0
-806 -1290 0
1289 1290 -1292 0
-1289 1292 0
-1290 1292 0
-805 -1087 1293 0
805 1087 1293 0
805 -1087 -1293 0
-805 1087 -1293 0
1292 -1293 1294 0
-1292 1293 1294 0
-1292 -1293 -1294 0
1292 1293 -1294 0
-1292 -1293 1295 0
1293 -1295 0
1292 -1295 0
805 -1087 1296 0
1087 -1296 0
-805 -1296 0
1295 1296 -1298 0
-1295 1298 0
-1296 1298 0
-793 1277 1299 0
793 -1277 1299 0
-793 -1277 -1299 0
793 1277 -1299 0
-793 -1277 1300 0
793 -1300 0
1277 -1300 0
1299 1300 -1302 0
-1299 1302 0
-1300 1302 0
-795 -1282 1303 0
795 1282 1303 0
-795 1282 -1303 0
795 -1282 -1303 0
1302 -1303 1304 0
-1302 1303 1304 0
-1302 -1303 -1304 0
1302 1303 -1304 0
-1302 -1303 1305 0
1303 -1305 0
1302 -1305 0
-795 1282 1306 0
795 -1306 0
-1282 -1306 0
1305 1306 -1308 0
-1305 1308 0
-1306 1308 0
-797 -1288 1309 0
797 1288 1309 0
-797 1288 -1309 0
797 -1288 -1309 0
1308 -1309 1310 0
-1308 1309 1310 0
-1308 -1309 -1310 0
1308 1309 -1310 0
-1308 -1309 1311 0
1309 -1311 0
1308 -1311 0
-797 1288 1312 0
797 -1312 0
-1288 -1312 0
1311 1312 -1314 0
-1311 1314 0
-1312 1314 0
-799 -1294 1315 0
799 1294 1315 0
-799 1294 -1315 0
799 -1294 -1315 0
1314 -1315 1316 0
-1314 1315 1316 0
-1314 -1315 -1316 0
1314 1315 -1316 0
-1314 -1315 1317 0
1315 -1317 0
1314 -1317 0
-799 1294 1318 0
799 -1318 0
-1294 -1318 0
1317 1318 -1320 0
-1317 1320 0
-1318 1320 0
-1298 1320 1321 0
1298 -1320 1321 0
-1298 -1320 -1321 0
1298 1320 -1321 0
-1298 -1320 1322 0
1298 -1322 0
1320 -1322 0
-1298 1322 1323 0
1298 -1322 1323 0
-1298 -1322 -1323 0
1298 1322 -1323 0
-1298 -1322 1324 0
1298 -1324 0
1322 -1324 0
-1299 1325 0
1299 -1325 0
1304 1326 0
-1304 -1326 0
-1310 1327 0
1310 -1327 0
1316 1328 0
-1316 -1328 0
1321 1323 1329 0
-1321 -1329 0
-1323 -1329 0
-1328 -1329 1330 0
1328 -1330 0
1329 -1330 0
-1327 -1330 1331 0
1327 -1331 0
1330 -1331 0
-1326 -1331 1332 0
1326 -1332 0
1331 -1332 0
-1325 -1332 1333 0
1325 -1333 0
1332 -1333 0
-1276 -1333 1334 0
1276 -1334 0
1333 -1334 0
1231 1334 0
