c auto generated from <file>
p cnf 56 182
-1 -2 -3 -4 -5 -6 0
-7 -8 -3 -9 -5 -6 0
-10 -11 -3 -12 -5 -6 0
-13 -14 -3 -15 -5 -6 0
-16 -17 -3 -18 -5 -6 0
-19 -8 -2 -9 -4 -6 0
-20 -11 -2 -12 -4 -6 0
-21 -14 -2 -15 -4 -6 0
-22 -17 -2 -18 -4 -6 0
-23 -11 -8 -12 -9 -6 0
-24 -14 -8 -15 -9 -6 0
-25 -17 -8 -18 -9 -6 0
-26 -14 -11 -15 -12 -6 0
-27 -17 -11 -18 -12 -6 0
-28 -17 -14 -18 -15 -6 0
-19 -7 -1 -9 -4 -5 0
-20 -10 -1 -12 -4 -5 0
-21 -13 -1 -15 -4 -5 0
-22 -16 -1 -18 -4 -5 0
-23 -10 -7 -12 -9 -5 0
-24 -13 -7 -15 -9 -5 0
-25 -16 -7 -18 -9 -5 0
-26 -13 -10 -15 -12 -5 0
-27 -16 -10 -18 -12 -5 0
-28 -16 -13 -18 -15 -5 0
-23 -20 -19 -12 -9 -4 0
-24 -21 -19 -15 -9 -4 0
-25 -22 -19 -18 -9 -4 0
-26 -21 -20 -15 -12 -4 0
-27 -22 -20 -18 -12 -4 0
-28 -22 -21 -18 -15 -4 0
-26 -24 -23 -15 -12 -9 0
-27 -25 -23 -18 -12 -9 0
-28 -25 -24 -18 -15 -9 0
-28 -27 -26 -18 -15 -12 0
-19 -7 -1 -8 -2 -3 0
-20 -10 -1 -11 -2 -3 0
-21 -13 -1 -14 -2 -3 0
-22 -16 -1 -17 -2 -3 0
-23 -10 -7 -11 -8 -3 0
-24 -13 -7 -14 -8 -3 0
-25 -16 -7 -17 -8 -3 0
-26 -13 -10 -14 -11 -3 0
-27 -16 -10 -17 -11 -3 0
-28 -16 -13 -17 -14 -3 0
-23 -20 -19 -11 -8 -2 0
-24 -21 -19 -14 -8 -2 0
-25 -22 -19 -17 -8 -2 0
-26 -21 -20 -14 -11 -2 0
-27 -22 -20 -17 -11 -2 0
-28 -22 -21 -17 -14 -2 0
-26 -24 -23 -14 -11 -8 0
-27 -25 -23 -17 -11 -8 0
-28 -25 -24 -17 -14 -8 0
-28 -27 -26 -17 -14 -11 0
-23 -20 -19 -10 -7 -1 0
-24 -21 -19 -13 -7 -1 0
-25 -22 -19 -16 -7 -1 0
-26 -21 -20 -13 -10 -1 0
-27 -22 -20 -16 -10 -1 0
-28 -22 -21 -16 -13 -1 0
-26 -24 -23 -13 -10 -7 0
-27 -25 -23 -16 -10 -7 0
-28 -25 -24 -16 -13 -7 0
-28 -27 -26 -16 -13 -10 0
-26 -24 -23 -21 -20 -19 0
-27 -25 -23 -22 -20 -19 0
-28 -25 -24 -22 -21 -19 0
-28 -27 -26 -22 -21 -20 0
-28 -27 -26 -25 -24 -23 0
-29 -30 -31 0
-32 -33 -31 0
-34 -35 -31 0
-36 -37 -31 0
-38 -39 -31 0
-40 -41 -31 0
-42 -33 -30 0
-43 -35 -30 0
-44 -37 -30 0
-45 -39 -30 0
-46 -41 -30 0
-47 -35 -33 0
-48 -37 -33 0
-49 -39 -33 0
-50 -41 -33 0
-51 -37 -35 0
-52 -39 -35 0
-53 -41 -35 0
-54 -39 -37 0
-55 -41 -37 0
-56 -41 -39 0
-42 -32 -29 0
-43 -34 -29 0
-44 -36 -29 0
-45 -38 -29 0
-46 -40 -29 0
-47 -34 -32 0
-48 -36 -32 0
-49 -38 -32 0
-50 -40 -32 0
-51 -36 -34 0
-52 -38 -34 0
-53 -40 -34 0
-54 -38 -36 0
-55 -40 -36 0
-56 -40 -38 0
-47 -43 -42 0
-48 -44 -42 0
-49 -45 -42 0
-50 -46 -42 0
-51 -44 -43 0
-52 -45 -43 0
-53 -46 -43 0
-54 -45 -44 0
-55 -46 -44 0
-56 -46 -45 0
-51 -48 -47 0
-52 -49 -47 0
-53 -50 -47 0
-54 -49 -48 0
-55 -50 -48 0
-56 -50 -49 0
-54 -52 -51 0
-55 -53 -51 0
-56 -53 -52 0
-56 -55 -54 0
6 31 0
-6 -31 0
5 30 0
-5 -30 0
4 33 0
-4 -33 0
9 35 0
-9 -35 0
12 37 0
-12 -37 0
15 39 0
-15 -39 0
18 41 0
-18 -41 0
3 29 0
-3 -29 0
2 32 0
-2 -32 0
8 34 0
-8 -34 0
11 36 0
-11 -36 0
14 38 0
-14 -38 0
17 40 0
-17 -40 0
1 42 0
-1 -42 0
7 43 0
-7 -43 0
10 44 0
-10 -44 0
13 45 0
-13 -45 0
16 46 0
-16 -46 0
19 47 0
-19 -47 0
20 48 0
-20 -48 0
21 49 0
-21 -49 0
22 50 0
-22 -50 0
23 51 0
-23 -51 0
24 52 0
-24 -52 0
25 53 0
-25 -53 0
26 54 0
-26 -54 0
27 55 0
-27 -55 0
28 56 0
-28 -56 0
