c auto generated from <file>
p cnf 30 70
-1 -2 -3 0
-4 -5 -3 0
-6 -7 -3 0
-8 -9 -3 0
-10 -5 -2 0
-11 -7 -2 0
-12 -9 -2 0
-13 -7 -5 0
-14 -9 -5 0
-15 -9 -7 0
-10 -4 -1 0
-11 -6 -1 0
-12 -8 -1 0
-13 -6 -4 0
-14 -8 -4 0
-15 -8 -6 0
-13 -11 -10 0
-14 -12 -10 0
-15 -12 -11 0
-15 -14 -13 0
-16 -17 -18 0
-19 -20 -18 0
-21 -22 -18 0
-23 -24 -18 0
-25 -20 -17 0
-26 -22 -17 0
-27 -24 -17 0
-28 -22 -20 0
-29 -24 -20 0
-30 -24 -22 0
-25 -19 -16 0
-26 -21 -16 0
-27 -23 -16 0
-28 -21 -19 0
-29 -23 -19 0
-30 -23 -21 0
-28 -26 -25 0
-29 -27 -25 0
-30 -27 -26 0
-30 -29 -28 0
18 3 0
-18 -3 0
17 2 0
-17 -2 0
20 5 0
-20 -5 0
22 7 0
-22 -7 0
24 9 0
-24 -9 0
16 1 0
-16 -1 0
19 4 0
-19 -4 0
21 6 0
-21 -6 0
23 8 0
-23 -8 0
25 10 0
-25 -10 0
26 11 0
-26 -11 0
27 12 0
-27 -12 0
28 13 0
-28 -13 0
29 14 0
-29 -14 0
30 15 0
-30 -15 0
