c auto generated from <file>
p cnf 72 282
-1 -2 -3 -4 -5 -6 0
-7 -8 -3 -9 -5 -6 0
-10 -11 -3 -12 -5 -6 0
-13 -14 -3 -15 -5 -6 0
-16 -17 -3 -18 -5 -6 0
-19 -20 -3 -21 -5 -6 0
-22 -8 -2 -9 -4 -6 0
-23 -11 -2 -12 -4 -6 0
-24 -14 -2 -15 -4 -6 0
-25 -17 -2 -18 -4 -6 0
-26 -20 -2 -21 -4 -6 0
-27 -11 -8 -12 -9 -6 0
-28 -14 -8 -15 -9 -6 0
-29 -17 -8 -18 -9 -6 0
-30 -20 -8 -21 -9 -6 0
-31 -14 -11 -15 -12 -6 0
-32 -17 -11 -18 -12 -6 0
-33 -20 -11 -21 -12 -6 0
-34 -17 -14 -18 -15 -6 0
-35 -20 -14 -21 -15 -6 0
-36 -20 -17 -21 -18 -6 0
-22 -7 -1 -9 -4 -5 0
-23 -10 -1 -12 -4 -5 0
-24 -13 -1 -15 -4 -5 0
-25 -16 -1 -18 -4 -5 0
-26 -19 -1 -21 -4 -5 0
-27 -10 -7 -12 -9 -5 0
-28 -13 -7 -15 -9 -5 0
-29 -16 -7 -18 -9 -5 0
-30 -19 -7 -21 -9 -5 0
-31 -13 -10 -15 -12 -5 0
-32 -16 -10 -18 -12 -5 0
-33 -19 -10 -21 -12 -5 0
-34 -16 -13 -18 -15 -5 0
-35 -19 -13 -21 -15 -5 0
-36 -19 -16 -21 -18 -5 0
-27 -23 -22 -12 -9 -4 0
-28 -24 -22 -15 -9 -4 0
-29 -25 -22 -18 -9 -4 0
-30 -26 -22 -21 -9 -4 0
-31 -24 -23 -15 -12 -4 0
-32 -25 -23 -18 -12 -4 0
-33 -26 -23 -21 -12 -4 0
-34 -25 -24 -18 -15 -4 0
-35 -26 -24 -21 -15 -4 0
-36 -26 -25 -21 -18 -4 0
-31 -28 -27 -15 -12 -9 0
-32 -29 -27 -18 -12 -9 0
-33 -30 -27 -21 -12 -9 0
-34 -29 -28 -18 -15 -9 0
-35 -30 -28 -21 -15 -9 0
-36 -30 -29 -21 -18 -9 0
-34 -32 -31 -18 -15 -12 0
-35 -33 -31 -21 -15 -12 0
-36 -33 -32 -21 -18 -12 0
-36 -35 -34 -21 -18 -15 0
-22 -7 -1 -8 -2 -3 0
-23 -10 -1 -11 -2 -3 0
-24 -13 -1 -14 -2 -3 0
-25 -16 -1 -17 -2 -3 0
-26 -19 -1 -20 -2 -3 0
-27 -10 -7 -11 -8 -3 0
-28 -13 -7 -14 -8 -3 0
-29 -16 -7 -17 -8 -3 0
-30 -19 -7 -20 -8 -3 0
-31 -13 -10 -14 -11 -3 0
-32 -16 -10 -17 -11 -3 0
-33 -19 -10 -20 -11 -3 0
-34 -16 -13 -17 -14 -3 0
-35 -19 -13 -20 -14 -3 0
-36 -19 -16 -20 -17 -3 0
-27 -23 -22 -11 -8 -2 0
-28 -24 -22 -14 -8 -2 0
-29 -25 -22 -17 -8 -2 0
-30 -26 -22 -20 -8 -2 0
-31 -24 -23 -14 -11 -2 0
-32 -25 -23 -17 -11 -2 0
-33 -26 -23 -20 -11 -2 0
-34 -25 -24 -17 -14 -2 0
-35 -26 -24 -20 -14 -2 0
-36 -26 -25 -20 -17 -2 0
-31 -28 -27 -14 -11 -8 0
-32 -29 -27 -17 -11 -8 0
-33 -30 -27 -20 -11 -8 0
-34 -29 -28 -17 -14 -8 0
-35 -30 -28 -20 -14 -8 0
-36 -30 -29 -20 -17 -8 0
-34 -32 -31 -17 -14 -11 0
-35 -33 -31 -20 -14 -11 0
-36 -33 -32 -20 -17 -11 0
-36 -35 -34 -20 -17 -14 0
-27 -23 -22 -10 -7 -1 0
-28 -24 -22 -13 -7 -1 0
-29 -25 -22 -16 -7 -1 0
-30 -26 -22 -19 -7 -1 0
-31 -24 -23 -13 -10 -1 0
-32 -25 -23 -16 -10 -1 0
-33 -26 -23 -19 -10 -1 0
-34 -25 -24 -16 -13 -1 0
-35 -26 -24 -19 -13 -1 0
-36 -26 -25 -19 -16 -1 0
-31 -28 -27 -13 -10 -7 0
-32 -29 -27 -16 -10 -7 0
-33 -30 -27 -19 -10 -7 0
-34 -29 -28 -16 -13 -7 0
-35 -30 -28 -19 -13 -7 0
-36 -30 -29 -19 -16 -7 0
-34 -32 -31 -16 -13 -10 0
-35 -33 -31 -19 -13 -10 0
-36 -33 -32 -19 -16 -10 0
-36 -35 -34 -19 -16 -13 0
-31 -28 -27 -24 -23 -22 0
-32 -29 -27 -25 -23 -22 0
-33 -30 -27 -26 -23 -22 0
-34 -29 -28 -25 -24 -22 0
-35 -30 -28 -26 -24 -22 0
-36 -30 -29 -26 -25 -22 0
-34 -32 -31 -25 -24 -23 0
-35 -33 -31 -26 -24 -23 0
-36 -33 -32 -26 -25 -23 0
-36 -35 -34 -26 -25 -24 0
-34 -32 -31 -29 -28 -27 0
-35 -33 -31 -30 -28 -27 0
-36 -33 -32 -30 -29 -27 0
-36 -35 -34 -30 -29 -28 0
-36 -35 -34 -33 -32 -31 0
-37 -38 -39 0
-40 -41 -39 0
-42 -43 -39 0
-44 -45 -39 0
-46 -47 -39 0
-48 -49 -39 0
-50 -51 -39 0
-52 -41 -38 0
-53 -43 -38 0
-54 -45 -38 0
-55 -47 -38 0
-56 -49 -38 0
-57 -51 -38 0
-58 -43 -41 0
-59 -45 -41 0
-60 -47 -41 0
-61 -49 -41 0
-62 -51 -41 0
-63 -45 -43 0
-64 -47 -43 0
-65 -49 -43 0
-66 -51 -43 0
-67 -47 -45 0
-68 -49 -45 0
-69 -51 -45 0
-70 -49 -47 0
-71 -51 -47 0
-72 -51 -49 0
-52 -40 -37 0
-53 -42 -37 0
-54 -44 -37 0
-55 -46 -37 0
-56 -48 -37 0
-57 -50 -37 0
-58 -42 -40 0
-59 -44 -40 0
-60 -46 -40 0
-61 -48 -40 0
-62 -50 -40 0
-63 -44 -42 0
-64 -46 -42 0
-65 -48 -42 0
-66 -50 -42 0
-67 -46 -44 0
-68 -48 -44 0
-69 -50 -44 0
-70 -48 -46 0
-71 -50 -46 0
-72 -50 -48 0
-58 -53 -52 0
-59 -54 -52 0
-60 -55 -52 0
-61 -56 -52 0
-62 -57 -52 0
-63 -54 -53 0
-64 -55 -53 0
-65 -56 -53 0
-66 -57 -53 0
-67 -55 -54 0
-68 -56 -54 0
-69 -57 -54 0
-70 -56 -55 0
-71 -57 -55 0
-72 -57 -56 0
-63 -59 -58 0
-64 -60 -58 0
-65 -61 -58 0
-66 -62 -58 0
-67 -60 -59 0
-68 -61 -59 0
-69 -62 -59 0
-70 -61 -60 0
-71 -62 -60 0
-72 -62 -61 0
-67 -64 -63 0
-68 -65 -63 0
-69 -66 -63 0
-70 -65 -64 0
-71 -66 -64 0
-72 -66 -65 0
-70 -68 -67 0
-71 -69 -67 0
-72 -69 -68 0
-72 -71 -70 0
6 39 0
-6 -39 0
5 38 0
-5 -38 0
4 41 0
-4 -41 0
9 43 0
-9 -43 0
12 45 0
-12 -45 0
15 47 0
-15 -47 0
18 49 0
-18 -49 0
21 51 0
-21 -51 0
3 37 0
-3 -37 0
2 40 0
-2 -40 0
8 42 0
-8 -42 0
11 44 0
-11 -44 0
14 46 0
-14 -46 0
17 48 0
-17 -48 0
20 50 0
-20 -50 0
1 52 0
-1 -52 0
7 53 0
-7 -53 0
10 54 0
-10 -54 0
13 55 0
-13 -55 0
16 56 0
-16 -56 0
19 57 0
-19 -57 0
22 58 0
-22 -58 0
23 59 0
-23 -59 0
24 60 0
-24 -60 0
25 61 0
-25 -61 0
26 62 0
-26 -62 0
27 63 0
-27 -63 0
28 64 0
-28 -64 0
29 65 0
-29 -65 0
30 66 0
-30 -66 0
31 67 0
-31 -67 0
32 68 0
-32 -68 0
33 69 0
-33 -69 0
34 70 0
-34 -70 0
35 71 0
-35 -71 0
36 72 0
-36 -72 0
