c auto generated from <file>
p cnf 306 6426
-1 -2 -3 -4 -5 -6 0
-7 -8 -3 -9 -5 -6 0
-10 -11 -3 -12 -5 -6 0
-13 -14 -3 -15 -5 -6 0
-16 -17 -3 -18 -5 -6 0
-19 -20 -3 -21 -5 -6 0
-22 -23 -3 -24 -5 -6 0
-25 -26 -3 -27 -5 -6 0
-28 -29 -3 -30 -5 -6 0
-31 -32 -3 -33 -5 -6 0
-34 -35 -3 -36 -5 -6 0
-37 -38 -3 -39 -5 -6 0
-40 -41 -3 -42 -5 -6 0
-43 -44 -3 -45 -5 -6 0
-46 -47 -3 -48 -5 -6 0
-49 -8 -2 -9 -4 -6 0
-50 -11 -2 -12 -4 -6 0
-51 -14 -2 -15 -4 -6 0
-52 -17 -2 -18 -4 -6 0
-53 -20 -2 -21 -4 -6 0
-54 -23 -2 -24 -4 -6 0
-55 -26 -2 -27 -4 -6 0
-56 -29 -2 -30 -4 -6 0
-57 -32 -2 -33 -4 -6 0
-58 -35 -2 -36 -4 -6 0
-59 -38 -2 -39 -4 -6 0
-60 -41 -2 -42 -4 -6 0
-61 -44 -2 -45 -4 -6 0
-62 -47 -2 -48 -4 -6 0
-63 -11 -8 -12 -9 -6 0
-64 -14 -8 -15 -9 -6 0
-65 -17 -8 -18 -9 -6 0
-66 -20 -8 -21 -9 -6 0
-67 -23 -8 -24 -9 -6 0
-68 -26 -8 -27 -9 -6 0
-69 -29 -8 -30 -9 -6 0
-70 -32 -8 -33 -9 -6 0
-71 -35 -8 -36 -9 -6 0
-72 -38 -8 -39 -9 -6 0
-73 -41 -8 -42 -9 -6 0
-74 -44 -8 -45 -9 -6 0
-75 -47 -8 -48 -9 -6 0
-76 -14 -11 -15 -12 -6 0
-77 -17 -11 -18 -12 -6 0
-78 -20 -11 -21 -12 -6 0
-79 -23 -11 -24 -12 -6 0
-80 -26 -11 -27 -12 -6 0
-81 -29 -11 -30 -12 -6 0
-82 -32 -11 -33 -12 -6 0
-83 -35 -11 -36 -12 -6 0
-84 -38 -11 -39 -12 -6 0
-85 -41 -11 -42 -12 -6 0
-86 -44 -11 -45 -12 -6 0
-87 -47 -11 -48 -12 -6 0
-88 -17 -14 -18 -15 -6 0
-89 -20 -14 -21 -15 -6 0
-90 -23 -14 -24 -15 -6 0
-91 -26 -14 -27 -15 -6 0
-92 -29 -14 -30 -15 -6 0
-93 -32 -14 -33 -15 -6 0
-94 -35 -14 -36 -15 -6 0
-95 -38 -14 -39 -15 -6 0
-96 -41 -14 -42 -15 -6 0
-97 -44 -14 -45 -15 -6 0
-98 -47 -14 -48 -15 -6 0
-99 -20 -17 -21 -18 -6 0
-100 -23 -17 -24 -18 -6 0
-101 -26 -17 -27 -18 -6 0
-102 -29 -17 -30 -18 -6 0
-103 -32 -17 -33 -18 -6 0
-104 -35 -17 -36 -18 -6 0
-105 -38 -17 -39 -18 -6 0
-106 -41 -17 -42 -18 -6 0
-107 -44 -17 -45 -18 -6 0
-108 -47 -17 -48 -18 -6 0
-109 -23 -20 -24 -21 -6 0
-110 -26 -20 -27 -21 -6 0
-111 -29 -20 -30 -21 -6 0
-112 -32 -20 -33 -21 -6 0
-113 -35 -20 -36 -21 -6 0
-114 -38 -20 -39 -21 -6 0
-115 -41 -20 -42 -21 -6 0
-116 -44 -20 -45 -21 -6 0
-117 -47 -20 -48 -21 -6 0
-118 -26 -23 -27 -24 -6 0
-119 -29 -23 -30 -24 -6 0
-120 -32 -23 -33 -24 -6 0
-121 -35 -23 -36 -24 -6 0
-122 -38 -23 -39 -24 -6 0
-123 -41 -23 -42 -24 -6 0
-124 -44 -23 -45 -24 -6 0
-125 -47 -23 -48 -24 -6 0
-126 -29 -26 -30 -27 -6 0
-127 -32 -26 -33 -27 -6 0
-128 -35 -26 -36 -27 -6 0
-129 -38 -26 -39 -27 -6 0
-130 -41 -26 -42 -27 -6 0
-131 -44 -26 -45 -27 -6 0
-132 -47 -26 -48 -27 -6 0
-133 -32 -29 -33 -30 -6 0
-134 -35 -29 -36 -30 -6 0
-135 -38 -29 -39 -30 -6 0
-136 -41 -29 -42 -30 -6 0
-137 -44 -29 -45 -30 -6 0
-138 -47 -29 -48 -30 -6 0
-139 -35 -32 -36 -33 -6 0
-140 -38 -32 -39 -33 -6 0
-141 -41 -32 -42 -33 -6 0
-142 -44 -32 -45 -33 -6 0
-143 -47 -32 -48 -33 -6 0
-144 -38 -35 -39 -36 -6 0
-145 -41 -35 -42 -36 -6 0
-146 -44 -35 -45 -36 -6 0
-147 -47 -35 -48 -36 -6 0
-148 -41 -38 -42 -39 -6 0
-149 -44 -38 -45 -39 -6 0
-150 -47 -38 -48 -39 -6 0
-151 -44 -41 -45 -42 -6 0
-152 -47 -41 -48 -42 -6 0
-153 -47 -44 -48 -45 -6 0
-49 -7 -1 -9 -4 -5 0
-50 -10 -1 -12 -4 -5 0
-51 -13 -1 -15 -4 -5 0
-52 -16 -1 -18 -4 -5 0
-53 -19 -1 -21 -4 -5 0
-54 -22 -1 -24 -4 -5 0
-55 -25 -1 -27 -4 -5 0
-56 -28 -1 -30 -4 -5 0
-57 -31 -1 -33 -4 -5 0
-58 -34 -1 -36 -4 -5 0
-59 -37 -1 -39 -4 -5 0
-60 -40 -1 -42 -4 -5 0
-61 -43 -1 -45 -4 -5 0
-62 -46 -1 -48 -4 -5 0
-63 -10 -7 -12 -9 -5 0
-64 -13 -7 -15 -9 -5 0
-65 -16 -7 -18 -9 -5 0
-66 -19 -7 -21 -9 -5 0
-67 -22 -7 -24 -9 -5 0
-68 -25 -7 -27 -9 -5 0
-69 -28 -7 -30 -9 -5 0
-70 -31 -7 -33 -9 -5 0
-71 -34 -7 -36 -9 -5 0
-72 -37 -7 -39 -9 -5 0
-73 -40 -7 -42 -9 -5 0
-74 -43 -7 -45 -9 -5 0
-75 -46 -7 -48 -9 -5 0
-76 -13 -10 -15 -12 -5 0
-77 -16 -10 -18 -12 -5 0
-78 -19 -10 -21 -12 -5 0
-79 -22 -10 -24 -12 -5 0
-80 -25 -10 -27 -12 -5 0
-81 -28 -10 -30 -12 -5 0
-82 -31 -10 -33 -12 -5 0
-83 -34 -10 -36 -12 -5 0
-84 -37 -10 -39 -12 -5 0
-85 -40 -10 -42 -12 -5 0
-86 -43 -10 -45 -12 -5 0
-87 -46 -10 -48 -12 -5 0
-88 -16 -13 -18 -15 -5 0
-89 -19 -13 -21 -15 -5 0
-90 -22 -13 -24 -15 -5 0
-91 -25 -13 -27 -15 -5 0
-92 -28 -13 -30 -15 -5 0
-93 -31 -13 -33 -15 -5 0
-94 -34 -13 -36 -15 -5 0
-95 -37 -13 -39 -15 -5 0
-96 -40 -13 -42 -15 -5 0
-97 -43 -13 -45 -15 -5 0
-98 -46 -13 -48 -15 -5 0
-99 -19 -16 -21 -18 -5 0
-100 -22 -16 -24 -18 -5 0
-101 -25 -16 -27 -18 -5 0
-102 -28 -16 -30 -18 -5 0
-103 -31 -16 -33 -18 -5 0
-104 -34 -16 -36 -18 -5 0
-105 -37 -16 -39 -18 -5 0
-106 -40 -16 -42 -18 -5 0
-107 -43 -16 -45 -18 -5 0
-108 -46 -16 -48 -18 -5 0
-109 -22 -19 -24 -21 -5 0
-110 -25 -19 -27 -21 -5 0
-111 -28 -19 -30 -21 -5 0
-112 -31 -19 -33 -21 -5 0
-113 -34 -19 -36 -21 -5 0
-114 -37 -19 -39 -21 -5 0
-115 -40 -19 -42 -21 -5 0
-116 -43 -19 -45 -21 -5 0
-117 -46 -19 -48 -21 -5 0
-118 -25 -22 -27 -24 -5 0
-119 -28 -22 -30 -24 -5 0
-120 -31 -22 -33 -24 -5 0
-121 -34 -22 -36 -24 -5 0
-122 -37 -22 -39 -24 -5 0
-123 -40 -22 -42 -24 -5 0
-124 -43 -22 -45 -24 -5 0
-125 -46 -22 -48 -24 -5 0
-126 -28 -25 -30 -27 -5 0
-127 -31 -25 -33 -27 -5 0
-128 -34 -25 -36 -27 -5 0
-129 -37 -25 -39 -27 -5 0
-130 -40 -25 -42 -27 -5 0
-131 -43 -25 -45 -27 -5 0
-132 -46 -25 -48 -27 -5 0
-133 -31 -28 -33 -30 -5 0
-134 -34 -28 -36 -30 -5 0
-135 -37 -28 -39 -30 -5 0
-136 -40 -28 -42 -30 -5 0
-137 -43 -28 -45 -30 -5 0
-138 -46 -28 -48 -30 -5 0
-139 -34 -31 -36 -33 -5 0
-140 -37 -31 -39 -33 -5 0
-141 -40 -31 -42 -33 -5 0
-142 -43 -31 -45 -33 -5 0
-143 -46 -31 -48 -33 -5 0
-144 -37 -34 -39 -36 -5 0
-145 -40 -34 -42 -36 -5 0
-146 -43 -34 -45 -36 -5 0
-147 -46 -34 -48 -36 -5 0
-148 -40 -37 -42 -39 -5 0
-149 -43 -37 -45 -39 -5 0
-150 -46 -37 -48 -39 -5 0
-151 -43 -40 -45 -42 -5 0
-152 -46 -40 -48 -42 -5 0
-153 -46 -43 -48 -45 -5 0
-63 -50 -49 -12 -9 -4 0
-64 -51 -49 -15 -9 -4 0
-65 -52 -49 -18 -9 -4 0
-66 -53 -49 -21 -9 -4 0
-67 -54 -49 -24 -9 -4 0
-68 -55 -49 -27 -9 -4 0
-69 -56 -49 -30 -9 -4 0
-70 -57 -49 -33 -9 -4 0
-71 -58 -49 -36 -9 -4 0
-72 -59 -49 -39 -9 -4 0
-73 -60 -49 -42 -9 -4 0
-74 -61 -49 -45 -9 -4 0
-75 -62 -49 -48 -9 -4 0
-76 -51 -50 -15 -12 -4 0
-77 -52 -50 -18 -12 -4 0
-78 -53 -50 -21 -12 -4 0
-79 -54 -50 -24 -12 -4 0
-80 -55 -50 -27 -12 -4 0
-81 -56 -50 -30 -12 -4 0
-82 -57 -50 -33 -12 -4 0
-83 -58 -50 -36 -12 -4 0
-84 -59 -50 -39 -12 -4 0
-85 -60 -50 -42 -12 -4 0
-86 -61 -50 -45 -12 -4 0
-87 -62 -50 -48 -12 -4 0
-88 -52 -51 -18 -15 -4 0
-89 -53 -51 -21 -15 -4 0
-90 -54 -51 -24 -15 -4 0
-91 -55 -51 -27 -15 -4 0
-92 -56 -51 -30 -15 -4 0
-93 -57 -51 -33 -15 -4 0
-94 -58 -51 -36 -15 -4 0
-95 -59 -51 -39 -15 -4 0
-96 -60 -51 -42 -15 -4 0
-97 -61 -51 -45 -15 -4 0
-98 -62 -51 -48 -15 -4 0
-99 -53 -52 -21 -18 -4 0
-100 -54 -52 -24 -18 -4 0
-101 -55 -52 -27 -18 -4 0
-102 -56 -52 -30 -18 -4 0
-103 -57 -52 -33 -18 -4 0
-104 -58 -52 -36 -18 -4 0
-105 -59 -52 -39 -18 -4 0
-106 -60 -52 -42 -18 -4 0
-107 -61 -52 -45 -18 -4 0
-108 -62 -52 -48 -18 -4 0
-109 -54 -53 -24 -21 -4 0
-110 -55 -53 -27 -21 -4 0
-111 -56 -53 -30 -21 -4 0
-112 -57 -53 -33 -21 -4 0
-113 -58 -53 -36 -21 -4 0
-114 -59 -53 -39 -21 -4 0
-115 -60 -53 -42 -21 -4 0
-116 -61 -53 -45 -21 -4 0
-117 -62 -53 -48 -21 -4 0
-118 -55 -54 -27 -24 -4 0
-119 -56 -54 -30 -24 -4 0
-120 -57 -54 -33 -24 -4 0
-121 -58 -54 -36 -24 -4 0
-122 -59 -54 -39 -24 -4 0
-123 -60 -54 -42 -24 -4 0
-124 -61 -54 -45 -24 -4 0
-125 -62 -54 -48 -24 -4 0
-126 -56 -55 -30 -27 -4 0
-127 -57 -55 -33 -27 -4 0
-128 -58 -55 -36 -27 -4 0
-129 -59 -55 -39 -27 -4 0
-130 -60 -55 -42 -27 -4 0
-131 -61 -55 -45 -27 -4 0
-132 -62 -55 -48 -27 -4 0
-133 -57 -56 -33 -30 -4 0
-134 -58 -56 -36 -30 -4 0
-135 -59 -56 -39 -30 -4 0
-136 -60 -56 -42 -30 -4 0
-137 -61 -56 -45 -30 -4 0
-138 -62 -56 -48 -30 -4 0
-139 -58 -57 -36 -33 -4 0
-140 -59 -57 -39 -33 -4 0
-141 -60 -57 -42 -33 -4 0
-142 -61 -57 -45 -33 -4 0
-143 -62 -57 -48 -33 -4 0
-144 -59 -58 -39 -36 -4 0
-145 -60 -58 -42 -36 -4 0
-146 -61 -58 -45 -36 -4 0
-147 -62 -58 -48 -36 -4 0
-148 -60 -59 -42 -39 -4 0
-149 -61 -59 -45 -39 -4 0
-150 -62 -59 -48 -39 -4 0
-151 -61 -60 -45 -42 -4 0
-152 -62 -60 -48 -42 -4 0
-153 -62 -61 -48 -45 -4 0
-76 -64 -63 -15 -12 -9 0
-77 -65 -63 -18 -12 -9 0
-78 -66 -63 -21 -12 -9 0
-79 -67 -63 -24 -12 -9 0
-80 -68 -63 -27 -12 -9 0
-81 -69 -63 -30 -12 -9 0
-82 -70 -63 -33 -12 -9 0
-83 -71 -63 -36 -12 -9 0
-84 -72 -63 -39 -12 -9 0
-85 -73 -63 -42 -12 -9 0
-86 -74 -63 -45 -12 -9 0
-87 -75 -63 -48 -12 -9 0
-88 -65 -64 -18 -15 -9 0
-89 -66 -64 -21 -15 -9 0
-90 -67 -64 -24 -15 -9 0
-91 -68 -64 -27 -15 -9 0
-92 -69 -64 -30 -15 -9 0
-93 -70 -64 -33 -15 -9 0
-94 -71 -64 -36 -15 -9 0
-95 -72 -64 -39 -15 -9 0
-96 -73 -64 -42 -15 -9 0
-97 -74 -64 -45 -15 -9 0
-98 -75 -64 -48 -15 -9 0
-99 -66 -65 -21 -18 -9 0
-100 -67 -65 -24 -18 -9 0
-101 -68 -65 -27 -18 -9 0
-102 -69 -65 -30 -18 -9 0
-103 -70 -65 -33 -18 -9 0
-104 -71 -65 -36 -18 -9 0
-105 -72 -65 -39 -18 -9 0
-106 -73 -65 -42 -18 -9 0
-107 -74 -65 -45 -18 -9 0
-108 -75 -65 -48 -18 -9 0
-109 -67 -66 -24 -21 -9 0
-110 -68 -66 -27 -21 -9 0
-111 -69 -66 -30 -21 -9 0
-112 -70 -66 -33 -21 -9 0
-113 -71 -66 -36 -21 -9 0
-114 -72 -66 -39 -21 -9 0
-115 -73 -66 -42 -21 -9 0
-116 -74 -66 -45 -21 -9 0
-117 -75 -66 -48 -21 -9 0
-118 -68 -67 -27 -24 -9 0
-119 -69 -67 -30 -24 -9 0
-120 -70 -67 -33 -24 -9 0
-121 -71 -67 -36 -24 -9 0
-122 -72 -67 -39 -24 -9 0
-123 -73 -67 -42 -24 -9 0
-124 -74 -67 -45 -24 -9 0
-125 -75 -67 -48 -24 -9 0
-126 -69 -68 -30 -27 -9 0
-127 -70 -68 -33 -27 -9 0
-128 -71 -68 -36 -27 -9 0
-129 -72 -68 -39 -27 -9 0
-130 -73 -68 -42 -27 -9 0
-131 -74 -68 -45 -27 -9 0
-132 -75 -68 -48 -27 -9 0
-133 -70 -69 -33 -30 -9 0
-134 -71 -69 -36 -30 -9 0
-135 -72 -69 -39 -30 -9 0
-136 -73 -69 -42 -30 -9 0
-137 -74 -69 -45 -30 -9 0
-138 -75 -69 -48 -30 -9 0
-139 -71 -70 -36 -33 -9 0
-140 -72 -70 -39 -33 -9 0
-141 -73 -70 -42 -33 -9 0
-142 -74 -70 -45 -33 -9 0
-143 -75 -70 -48 -33 -9 0
-144 -72 -71 -39 -36 -9 0
-145 -73 -71 -42 -36 -9 0
-146 -74 -71 -45 -36 -9 0
-147 -75 -71 -48 -36 -9 0
-148 -73 -72 -42 -39 -9 0
-149 -74 -72 -45 -39 -9 0
-150 -75 -72 -48 -39 -9 0
-151 -74 -73 -45 -42 -9 0
-152 -75 -73 -48 -42 -9 0
-153 -75 -74 -48 -45 -9 0
-88 -77 -76 -18 -15 -12 0
-89 -78 -76 -21 -15 -12 0
-90 -79 -76 -24 -15 -12 0
-91 -80 -76 -27 -15 -12 0
-92 -81 -76 -30 -15 -12 0
-93 -82 -76 -33 -15 -12 0
-94 -83 -76 -36 -15 -12 0
-95 -84 -76 -39 -15 -12 0
-96 -85 -76 -42 -15 -12 0
-97 -86 -76 -45 -15 -12 0
-98 -87 -76 -48 -15 -12 0
-99 -78 -77 -21 -18 -12 0
-100 -79 -77 -24 -18 -12 0
-101 -80 -77 -27 -18 -12 0
-102 -81 -77 -30 -18 -12 0
-103 -82 -77 -33 -18 -12 0
-104 -83 -77 -36 -18 -12 0
-105 -84 -77 -39 -18 -12 0
-106 -85 -77 -42 -18 -12 0
-107 -86 -77 -45 -18 -12 0
-108 -87 -77 -48 -18 -12 0
-109 -79 -78 -24 -21 -12 0
-110 -80 -78 -27 -21 -12 0
-111 -81 -78 -30 -21 -12 0
-112 -82 -78 -33 -21 -12 0
-113 -83 -78 -36 -21 -12 0
-114 -84 -78 -39 -21 -12 0
-115 -85 -78 -42 -21 -12 0
-116 -86 -78 -45 -21 -12 0
-117 -87 -78 -48 -21 -12 0
-118 -80 -79 -27 -24 -12 0
-119 -81 -79 -30 -24 -12 0
-120 -82 -79 -33 -24 -12 0
-121 -83 -79 -36 -24 -12 0
-122 -84 -79 -39 -24 -12 0
-123 -85 -79 -42 -24 -12 0
-124 -86 -79 -45 -24 -12 0
-125 -87 -79 -48 -24 -12 0
-126 -81 -80 -30 -27 -12 0
-127 -82 -80 -33 -27 -12 0
-128 -83 -80 -36 -27 -12 0
-129 -84 -80 -39 -27 -12 0
-130 -85 -80 -42 -27 -12 0
-131 -86 -80 -45 -27 -12 0
-132 -87 -80 -48 -27 -12 0
-133 -82 -81 -33 -30 -12 0
-134 -83 -81 -36 -30 -12 0
-135 -84 -81 -39 -30 -12 0
-136 -85 -81 -42 -30 -12 0
-137 -86 -81 -45 -30 -12 0
-138 -87 -81 -48 -30 -12 0
-139 -83 -82 -36 -33 -12 0
-140 -84 -82 -39 -33 -12 0
-141 -85 -82 -42 -33 -12 0
-142 -86 -82 -45 -33 -12 0
-143 -87 -82 -48 -33 -12 0
-144 -84 -83 -39 -36 -12 0
-145 -85 -83 -42 -36 -12 0
-146 -86 -83 -45 -36 -12 0
-147 -87 -83 -48 -36 -12 0
-148 -85 -84 -42 -39 -12 0
-149 -86 -84 -45 -39 -12 0
-150 -87 -84 -48 -39 -12 0
-151 -86 -85 -45 -42 -12 0
-152 -87 -85 -48 -42 -12 0
-153 -87 -86 -48 -45 -12 0
-99 -89 -88 -21 -18 -15 0
-100 -90 -88 -24 -18 -15 0
-101 -91 -88 -27 -18 -15 0
-102 -92 -88 -30 -18 -15 0
-103 -93 -88 -33 -18 -15 0
-104 -94 -88 -36 -18 -15 0
-105 -95 -88 -39 -18 -15 0
-106 -96 -88 -42 -18 -15 0
-107 -97 -88 -45 -18 -15 0
-108 -98 -88 -48 -18 -15 0
-109 -90 -89 -24 -21 -15 0
-110 -91 -89 -27 -21 -15 0
-111 -92 -89 -30 -21 -15 0
-112 -93 -89 -33 -21 -15 0
-113 -94 -89 -36 -21 -15 0
-114 -95 -89 -39 -21 -15 0
-115 -96 -89 -42 -21 -15 0
-116 -97 -89 -45 -21 -15 0
-117 -98 -89 -48 -21 -15 0
-118 -91 -90 -27 -24 -15 0
-119 -92 -90 -30 -24 -15 0
-120 -93 -90 -33 -24 -15 0
-121 -94 -90 -36 -24 -15 0
-122 -95 -90 -39 -24 -15 0
-123 -96 -90 -42 -24 -15 0
-124 -97 -90 -45 -24 -15 0
-125 -98 -90 -48 -24 -15 0
-126 -92 -91 -30 -27 -15 0
-127 -93 -91 -33 -27 -15 0
-128 -94 -91 -36 -27 -15 0
-129 -95 -91 -39 -27 -15 0
-130 -96 -91 -42 -27 -15 0
-131 -97 -91 -45 -27 -15 0
-132 -98 -91 -48 -27 -15 0
-133 -93 -92 -33 -30 -15 0
-134 -94 -92 -36 -30 -15 0
-135 -95 -92 -39 -30 -15 0
-136 -96 -92 -42 -30 -15 0
-137 -97 -92 -45 -30 -15 0
-138 -98 -92 -48 -30 -15 0
-139 -94 -93 -36 -33 -15 0
-140 -95 -93 -39 -33 -15 0
-141 -96 -93 -42 -33 -15 0
-142 -97 -93 -45 -33 -15 0
-143 -98 -93 -48 -33 -15 0
-144 -95 -94 -39 -36 -15 0
-145 -96 -94 -42 -36 -15 0
-146 -97 -94 -45 -36 -15 0
-147 -98 -94 -48 -36 -15 0
-148 -96 -95 -42 -39 -15 0
-149 -97 -95 -45 -39 -15 0
-150 -98 -95 -48 -39 -15 0
-151 -97 -96 -45 -42 -15 0
-152 -98 -96 -48 -42 -15 0
-153 -98 -97 -48 -45 -15 0
-109 -100 -99 -24 -21 -18 0
-110 -101 -99 -27 -21 -18 0
-111 -102 -99 -30 -21 -18 0
-112 -103 -99 -33 -21 -18 0
-113 -104 -99 -36 -21 -18 0
-114 -105 -99 -39 -21 -18 0
-115 -106 -99 -42 -21 -18 0
-116 -107 -99 -45 -21 -18 0
-117 -108 -99 -48 -21 -18 0
-118 -101 -100 -27 -24 -18 0
-119 -102 -100 -30 -24 -18 0
-120 -103 -100 -33 -24 -18 0
-121 -104 -100 -36 -24 -18 0
-122 -105 -100 -39 -24 -18 0
-123 -106 -100 -42 -24 -18 0
-124 -107 -100 -45 -24 -18 0
-125 -108 -100 -48 -24 -18 0
-126 -102 -101 -30 -27 -18 0
-127 -103 -101 -33 -27 -18 0
-128 -104 -101 -36 -27 -18 0
-129 -105 -101 -39 -27 -18 0
-130 -106 -101 -42 -27 -18 0
-131 -107 -101 -45 -27 -18 0
-132 -108 -101 -48 -27 -18 0
-133 -103 -102 -33 -30 -18 0
-134 -104 -102 -36 -30 -18 0
-135 -105 -102 -39 -30 -18 0
-136 -106 -102 -42 -30 -18 0
-137 -107 -102 -45 -30 -18 0
-138 -108 -102 -48 -30 -18 0
-139 -104 -103 -36 -33 -18 0
-140 -105 -103 -39 -33 -18 0
-141 -106 -103 -42 -33 -18 0
-142 -107 -103 -45 -33 -18 0
-143 -108 -103 -48 -33 -18 0
-144 -105 -104 -39 -36 -18 0
-145 -106 -104 -42 -36 -18 0
-146 -107 -104 -45 -36 -18 0
-147 -108 -104 -48 -36 -18 0
-148 -106 -105 -42 -39 -18 0
-149 -107 -105 -45 -39 -18 0
-150 -108 -105 -48 -39 -18 0
-151 -107 -106 -45 -42 -18 0
-152 -108 -106 -48 -42 -18 0
-153 -108 -107 -48 -45 -18 0
-118 -110 -109 -27 -24 -21 0
-119 -111 -109 -30 -24 -21 0
-120 -112 -109 -33 -24 -21 0
-121 -113 -109 -36 -24 -21 0
-122 -114 -109 -39 -24 -21 0
-123 -115 -109 -42 -24 -21 0
-124 -116 -109 -45 -24 -21 0
-125 -117 -109 -48 -24 -21 0
-126 -111 -110 -30 -27 -21 0
-127 -112 -110 -33 -27 -21 0
-128 -113 -110 -36 -27 -21 0
-129 -114 -110 -39 -27 -21 0
-130 -115 -110 -42 -27 -21 0
-131 -116 -110 -45 -27 -21 0
-132 -117 -110 -48 -27 -21 0
-133 -112 -111 -33 -30 -21 0
-134 -113 -111 -36 -30 -21 0
-135 -114 -111 -39 -30 -21 0
-136 -115 -111 -42 -30 -21 0
-137 -116 -111 -45 -30 -21 0
-138 -117 -111 -48 -30 -21 0
-139 -113 -112 -36 -33 -21 0
-140 -114 -112 -39 -33 -21 0
-141 -115 -112 -42 -33 -21 0
-142 -116 -112 -45 -33 -21 0
-143 -117 -112 -48 -33 -21 0
-144 -114 -113 -39 -36 -21 0
-145 -115 -113 -42 -36 -21 0
-146 -116 -113 -45 -36 -21 0
-147 -117 -113 -48 -36 -21 0
-148 -115 -114 -42 -39 -21 0
-149 -116 -114 -45 -39 -21 0
-150 -117 -114 -48 -39 -21 0
-151 -116 -115 -45 -42 -21 0
-152 -117 -115 -48 -42 -21 0
-153 -117 -116 -48 -45 -21 0
-126 -119 -118 -30 -27 -24 0
-127 -120 -118 -33 -27 -24 0
-128 -121 -118 -36 -27 -24 0
-129 -122 -118 -39 -27 -24 0
-130 -123 -118 -42 -27 -24 0
-131 -124 -118 -45 -27 -24 0
-132 -125 -118 -48 -27 -24 0
-133 -120 -119 -33 -30 -24 0
-134 -121 -119 -36 -30 -24 0
-135 -122 -119 -39 -30 -24 0
-136 -123 -119 -42 -30 -24 0
-137 -124 -119 -45 -30 -24 0
-138 -125 -119 -48 -30 -24 0
-139 -121 -120 -36 -33 -24 0
-140 -122 -120 -39 -33 -24 0
-141 -123 -120 -42 -33 -24 0
-142 -124 -120 -45 -33 -24 0
-143 -125 -120 -48 -33 -24 0
-144 -122 -121 -39 -36 -24 0
-145 -123 -121 -42 -36 -24 0
-146 -124 -121 -45 -36 -24 0
-147 -125 -121 -48 -36 -24 0
-148 -123 -122 -42 -39 -24 0
-149 -124 -122 -45 -39 -24 0
-150 -125 -122 -48 -39 -24 0
-151 -124 -123 -45 -42 -24 0
-152 -125 -123 -48 -42 -24 0
-153 -125 -124 -48 -45 -24 0
-133 -127 -126 -33 -30 -27 0
-134 -128 -126 -36 -30 -27 0
-135 -129 -126 -39 -30 -27 0
-136 -130 -126 -42 -30 -27 0
-137 -131 -126 -45 -30 -27 0
-138 -132 -126 -48 -30 -27 0
-139 -128 -127 -36 -33 -27 0
-140 -129 -127 -39 -33 -27 0
-141 -130 -127 -42 -33 -27 0
-142 -131 -127 -45 -33 -27 0
-143 -132 -127 -48 -33 -27 0
-144 -129 -128 -39 -36 -27 0
-145 -130 -128 -42 -36 -27 0
-146 -131 -128 -45 -36 -27 0
-147 -132 -128 -48 -36 -27 0
-148 -130 -129 -42 -39 -27 0
-149 -131 -129 -45 -39 -27 0
-150 -132 -129 -48 -39 -27 0
-151 -131 -130 -45 -42 -27 0
-152 -132 -130 -48 -42 -27 0
-153 -132 -131 -48 -45 -27 0
-139 -134 -133 -36 -33 -30 0
-140 -135 -133 -39 -33 -30 0
-141 -136 -133 -42 -33 -30 0
-142 -137 -133 -45 -33 -30 0
-143 -138 -133 -48 -33 -30 0
-144 -135 -134 -39 -36 -30 0
-145 -136 -134 -42 -36 -30 0
-146 -137 -134 -45 -36 -30 0
-147 -138 -134 -48 -36 -30 0
-148 -136 -135 -42 -39 -30 0
-149 -137 -135 -45 -39 -30 0
-150 -138 -135 -48 -39 -30 0
-151 -137 -136 -45 -42 -30 0
-152 -138 -136 -48 -42 -30 0
-153 -138 -137 -48 -45 -30 0
-144 -140 -139 -39 -36 -33 0
-145 -141 -139 -42 -36 -33 0
-146 -142 -139 -45 -36 -33 0
-147 -143 -139 -48 -36 -33 0
-148 -141 -140 -42 -39 -33 0
-149 -142 -140 -45 -39 -33 0
-150 -143 -140 -48 -39 -33 0
-151 -142 -141 -45 -42 -33 0
-152 -143 -141 -48 -42 -33 0
-153 -143 -142 -48 -45 -33 0
-148 -145 -144 -42 -39 -36 0
-149 -146 -144 -45 -39 -36 0
-150 -147 -144 -48 -39 -36 0
-151 -146 -145 -45 -42 -36 0
-152 -147 -145 -48 -42 -36 0
-153 -147 -146 -48 -45 -36 0
-151 -149 -148 -45 -42 -39 0
-152 -150 -148 -48 -42 -39 0
-153 -150 -149 -48 -45 -39 0
-153 -152 -151 -48 -45 -42 0
-49 -7 -1 -8 -2 -3 0
-50 -10 -1 -11 -2 -3 0
-51 -13 -1 -14 -2 -3 0
-52 -16 -1 -17 -2 -3 0
-53 -19 -1 -20 -2 -3 0
-54 -22 -1 -23 -2 -3 0
-55 -25 -1 -26 -2 -3 0
-56 -28 -1 -29 -2 -3 0
-57 -31 -1 -32 -2 -3 0
-58 -34 -1 -35 -2 -3 0
-59 -37 -1 -38 -2 -3 0
-60 -40 -1 -41 -2 -3 0
-61 -43 -1 -44 -2 -3 0
-62 -46 -1 -47 -2 -3 0
-63 -10 -7 -11 -8 -3 0
-64 -13 -7 -14 -8 -3 0
-65 -16 -7 -17 -8 -3 0
-66 -19 -7 -20 -8 -3 0
-67 -22 -7 -23 -8 -3 0
-68 -25 -7 -26 -8 -3 0
-69 -28 -7 -29 -8 -3 0
-70 -31 -7 -32 -8 -3 0
-71 -34 -7 -35 -8 -3 0
-72 -37 -7 -38 -8 -3 0
-73 -40 -7 -41 -8 -3 0
-74 -43 -7 -44 -8 -3 0
-75 -46 -7 -47 -8 -3 0
-76 -13 -10 -14 -11 -3 0
-77 -16 -10 -17 -11 -3 0
-78 -19 -10 -20 -11 -3 0
-79 -22 -10 -23 -11 -3 0
-80 -25 -10 -26 -11 -3 0
-81 -28 -10 -29 -11 -3 0
-82 -31 -10 -32 -11 -3 0
-83 -34 -10 -35 -11 -3 0
-84 -37 -10 -38 -11 -3 0
-85 -40 -10 -41 -11 -3 0
-86 -43 -10 -44 -11 -3 0
-87 -46 -10 -47 -11 -3 0
-88 -16 -13 -17 -14 -3 0
-89 -19 -13 -20 -14 -3 0
-90 -22 -13 -23 -14 -3 0
-91 -25 -13 -26 -14 -3 0
-92 -28 -13 -29 -14 -3 0
-93 -31 -13 -32 -14 -3 0
-94 -34 -13 -35 -14 -3 0
-95 -37 -13 -38 -14 -3 0
-96 -40 -13 -41 -14 -3 0
-97 -43 -13 -44 -14 -3 0
-98 -46 -13 -47 -14 -3 0
-99 -19 -16 -20 -17 -3 0
-100 -22 -16 -23 -17 -3 0
-101 -25 -16 -26 -17 -3 0
-102 -28 -16 -29 -17 -3 0
-103 -31 -16 -32 -17 -3 0
-104 -34 -16 -35 -17 -3 0
-105 -37 -16 -38 -17 -3 0
-106 -40 -16 -41 -17 -3 0
-107 -43 -16 -44 -17 -3 0
-108 -46 -16 -47 -17 -3 0
-109 -22 -19 -23 -20 -3 0
-110 -25 -19 -26 -20 -3 0
-111 -28 -19 -29 -20 -3 0
-112 -31 -19 -32 -20 -3 0
-113 -34 -19 -35 -20 -3 0
-114 -37 -19 -38 -20 -3 0
-115 -40 -19 -41 -20 -3 0
-116 -43 -19 -44 -20 -3 0
-117 -46 -19 -47 -20 -3 0
-118 -25 -22 -26 -23 -3 0
-119 -28 -22 -29 -23 -3 0
-120 -31 -22 -32 -23 -3 0
-121 -34 -22 -35 -23 -3 0
-122 -37 -22 -38 -23 -3 0
-123 -40 -22 -41 -23 -3 0
-124 -43 -22 -44 -23 -3 0
-125 -46 -22 -47 -23 -3 0
-126 -28 -25 -29 -26 -3 0
-127 -31 -25 -32 -26 -3 0
-128 -34 -25 -35 -26 -3 0
-129 -37 -25 -38 -26 -3 0
-130 -40 -25 -41 -26 -3 0
-131 -43 -25 -44 -26 -3 0
-132 -46 -25 -47 -26 -3 0
-133 -31 -28 -32 -29 -3 0
-134 -34 -28 -35 -29 -3 0
-135 -37 -28 -38 -29 -3 0
-136 -40 -28 -41 -29 -3 0
-137 -43 -28 -44 -29 -3 0
-138 -46 -28 -47 -29 -3 0
-139 -34 -31 -35 -32 -3 0
-140 -37 -31 -38 -32 -3 0
-141 -40 -31 -41 -32 -3 0
-142 -43 -31 -44 -32 -3 0
-143 -46 -31 -47 -32 -3 0
-144 -37 -34 -38 -35 -3 0
-145 -40 -34 -41 -35 -3 0
-146 -43 -34 -44 -35 -3 0
-147 -46 -34 -47 -35 -3 0
-148 -40 -37 -41 -38 -3 0
-149 -43 -37 -44 -38 -3 0
-150 -46 -37 -47 -38 -3 0
-151 -43 -40 -44 -41 -3 0
-152 -46 -40 -47 -41 -3 0
-153 -46 -43 -47 -44 -3 0
-63 -50 -49 -11 -8 -2 0
-64 -51 -49 -14 -8 -2 0
-65 -52 -49 -17 -8 -2 0
-66 -53 -49 -20 -8 -2 0
-67 -54 -49 -23 -8 -2 0
-68 -55 -49 -26 -8 -2 0
-69 -56 -49 -29 -8 -2 0
-70 -57 -49 -32 -8 -2 0
-71 -58 -49 -35 -8 -2 0
-72 -59 -49 -38 -8 -2 0
-73 -60 -49 -41 -8 -2 0
-74 -61 -49 -44 -8 -2 0
-75 -62 -49 -47 -8 -2 0
-76 -51 -50 -14 -11 -2 0
-77 -52 -50 -17 -11 -2 0
-78 -53 -50 -20 -11 -2 0
-79 -54 -50 -23 -11 -2 0
-80 -55 -50 -26 -11 -2 0
-81 -56 -50 -29 -11 -2 0
-82 -57 -50 -32 -11 -2 0
-83 -58 -50 -35 -11 -2 0
-84 -59 -50 -38 -11 -2 0
-85 -60 -50 -41 -11 -2 0
-86 -61 -50 -44 -11 -2 0
-87 -62 -50 -47 -11 -2 0
-88 -52 -51 -17 -14 -2 0
-89 -53 -51 -20 -14 -2 0
-90 -54 -51 -23 -14 -2 0
-91 -55 -51 -26 -14 -2 0
-92 -56 -51 -29 -14 -2 0
-93 -57 -51 -32 -14 -2 0
-94 -58 -51 -35 -14 -2 0
-95 -59 -51 -38 -14 -2 0
-96 -60 -51 -41 -14 -2 0
-97 -61 -51 -44 -14 -2 0
-98 -62 -51 -47 -14 -2 0
-99 -53 -52 -20 -17 -2 0
-100 -54 -52 -23 -17 -2 0
-101 -55 -52 -26 -17 -2 0
-102 -56 -52 -29 -17 -2 0
-103 -57 -52 -32 -17 -2 0
-104 -58 -52 -35 -17 -2 0
-105 -59 -52 -38 -17 -2 0
-106 -60 -52 -41 -17 -2 0
-107 -61 -52 -44 -17 -2 0
-108 -62 -52 -47 -17 -2 0
-109 -54 -53 -23 -20 -2 0
-110 -55 -53 -26 -20 -2 0
-111 -56 -53 -29 -20 -2 0
-112 -57 -53 -32 -20 -2 0
-113 -58 -53 -35 -20 -2 0
-114 -59 -53 -38 -20 -2 0
-115 -60 -53 -41 -20 -2 0
-116 -61 -53 -44 -20 -2 0
-117 -62 -53 -47 -20 -2 0
-118 -55 -54 -26 -23 -2 0
-119 -56 -54 -29 -23 -2 0
-120 -57 -54 -32 -23 -2 0
-121 -58 -54 -35 -23 -2 0
-122 -59 -54 -38 -23 -2 0
-123 -60 -54 -41 -23 -2 0
-124 -61 -54 -44 -23 -2 0
-125 -62 -54 -47 -23 -2 0
-126 -56 -55 -29 -26 -2 0
-127 -57 -55 -32 -26 -2 0
-128 -58 -55 -35 -26 -2 0
-129 -59 -55 -38 -26 -2 0
-130 -60 -55 -41 -26 -2 0
-131 -61 -55 -44 -26 -2 0
-132 -62 -55 -47 -26 -2 0
-133 -57 -56 -32 -29 -2 0
-134 -58 -56 -35 -29 -2 0
-135 -59 -56 -38 -29 -2 0
-136 -60 -56 -41 -29 -2 0
-137 -61 -56 -44 -29 -2 0
-138 -62 -56 -47 -29 -2 0
-139 -58 -57 -35 -32 -2 0
-140 -59 -57 -38 -32 -2 0
-141 -60 -57 -41 -32 -2 0
-142 -61 -57 -44 -32 -2 0
-143 -62 -57 -47 -32 -2 0
-144 -59 -58 -38 -35 -2 0
-145 -60 -58 -41 -35 -2 0
-146 -61 -58 -44 -35 -2 0
-147 -62 -58 -47 -35 -2 0
-148 -60 -59 -41 -38 -2 0
-149 -61 -59 -44 -38 -2 0
-150 -62 -59 -47 -38 -2 0
-151 -61 -60 -44 -41 -2 0
-152 -62 -60 -47 -41 -2 0
-153 -62 -61 -47 -44 -2 0
-76 -64 -63 -14 -11 -8 0
-77 -65 -63 -17 -11 -8 0
-78 -66 -63 -20 -11 -8 0
-79 -67 -63 -23 -11 -8 0
-80 -68 -63 -26 -11 -8 0
-81 -69 -63 -29 -11 -8 0
-82 -70 -63 -32 -11 -8 0
-83 -71 -63 -35 -11 -8 0
-84 -72 -63 -38 -11 -8 0
-85 -73 -63 -41 -11 -8 0
-86 -74 -63 -44 -11 -8 0
-87 -75 -63 -47 -11 -8 0
-88 -65 -64 -17 -14 -8 0
-89 -66 -64 -20 -14 -8 0
-90 -67 -64 -23 -14 -8 0
-91 -68 -64 -26 -14 -8 0
-92 -69 -64 -29 -14 -8 0
-93 -70 -64 -32 -14 -8 0
-94 -71 -64 -35 -14 -8 0
-95 -72 -64 -38 -14 -8 0
-96 -73 -64 -41 -14 -8 0
-97 -74 -64 -44 -14 -8 0
-98 -75 -64 -47 -14 -8 0
-99 -66 -65 -20 -17 -8 0
-100 -67 -65 -23 -17 -8 0
-101 -68 -65 -26 -17 -8 0
-102 -69 -65 -29 -17 -8 0
-103 -70 -65 -32 -17 -8 0
-104 -71 -65 -35 -17 -8 0
-105 -72 -65 -38 -17 -8 0
-106 -73 -65 -41 -17 -8 0
-107 -74 -65 -44 -17 -8 0
-108 -75 -65 -47 -17 -8 0
-109 -67 -66 -23 -20 -8 0
-110 -68 -66 -26 -20 -8 0
-111 -69 -66 -29 -20 -8 0
-112 -70 -66 -32 -20 -8 0
-113 -71 -66 -35 -20 -8 0
-114 -72 -66 -38 -20 -8 0
-115 -73 -66 -41 -20 -8 0
-116 -74 -66 -44 -20 -8 0
-117 -75 -66 -47 -20 -8 0
-118 -68 -67 -26 -23 -8 0
-119 -69 -67 -29 -23 -8 0
-120 -70 -67 -32 -23 -8 0
-121 -71 -67 -35 -23 -8 0
-122 -72 -67 -38 -23 -8 0
-123 -73 -67 -41 -23 -8 0
-124 -74 -67 -44 -23 -8 0
-125 -75 -67 -47 -23 -8 0
-126 -69 -68 -29 -26 -8 0
-127 -70 -68 -32 -26 -8 0
-128 -71 -68 -35 -26 -8 0
-129 -72 -68 -38 -26 -8 0
-130 -73 -68 -41 -26 -8 0
-131 -74 -68 -44 -26 -8 0
-132 -75 -68 -47 -26 -8 0
-133 -70 -69 -32 -29 -8 0
-134 -71 -69 -35 -29 -8 0
-135 -72 -69 -38 -29 -8 0
-136 -73 -69 -41 -29 -8 0
-137 -74 -69 -44 -29 -8 0
-138 -75 -69 -47 -29 -8 0
-139 -71 -70 -35 -32 -8 0
-140 -72 -70 -38 -32 -8 0
-141 -73 -70 -41 -32 -8 0
-142 -74 -70 -44 -32 -8 0
-143 -75 -70 -47 -32 -8 0
-144 -72 -71 -38 -35 -8 0
-145 -73 -71 -41 -35 -8 0
-146 -74 -71 -44 -35 -8 0
-147 -75 -71 -47 -35 -8 0
-148 -73 -72 -41 -38 -8 0
-149 -74 -72 -44 -38 -8 0
-150 -75 -72 -47 -38 -8 0
-151 -74 -73 -44 -41 -8 0
-152 -75 -73 -47 -41 -8 0
-153 -75 -74 -47 -44 -8 0
-88 -77 -76 -17 -14 -11 0
-89 -78 -76 -20 -14 -11 0
-90 -79 -76 -23 -14 -11 0
-91 -80 -76 -26 -14 -11 0
-92 -81 -76 -29 -14 -11 0
-93 -82 -76 -32 -14 -11 0
-94 -83 -76 -35 -14 -11 0
-95 -84 -76 -38 -14 -11 0
-96 -85 -76 -41 -14 -11 0
-97 -86 -76 -44 -14 -11 0
-98 -87 -76 -47 -14 -11 0
-99 -78 -77 -20 -17 -11 0
-100 -79 -77 -23 -17 -11 0
-101 -80 -77 -26 -17 -11 0
-102 -81 -77 -29 -17 -11 0
-103 -82 -77 -32 -17 -11 0
-104 -83 -77 -35 -17 -11 0
-105 -84 -77 -38 -17 -11 0
-106 -85 -77 -41 -17 -11 0
-107 -86 -77 -44 -17 -11 0
-108 -87 -77 -47 -17 -11 0
-109 -79 -78 -23 -20 -11 0
-110 -80 -78 -26 -20 -11 0
-111 -81 -78 -29 -20 -11 0
-112 -82 -78 -32 -20 -11 0
-113 -83 -78 -35 -20 -11 0
-114 -84 -78 -38 -20 -11 0
-115 -85 -78 -41 -20 -11 0
-116 -86 -78 -44 -20 -11 0
-117 -87 -78 -47 -20 -11 0
-118 -80 -79 -26 -23 -11 0
-119 -81 -79 -29 -23 -11 0
-120 -82 -79 -32 -23 -11 0
-121 -83 -79 -35 -23 -11 0
-122 -84 -79 -38 -23 -11 0
-123 -85 -79 -41 -23 -11 0
-124 -86 -79 -44 -23 -11 0
-125 -87 -79 -47 -23 -11 0
-126 -81 -80 -29 -26 -11 0
-127 -82 -80 -32 -26 -11 0
-128 -83 -80 -35 -26 -11 0
-129 -84 -80 -38 -26 -11 0
-130 -85 -80 -41 -26 -11 0
-131 -86 -80 -44 -26 -11 0
-132 -87 -80 -47 -26 -11 0
-133 -82 -81 -32 -29 -11 0
-134 -83 -81 -35 -29 -11 0
-135 -84 -81 -38 -29 -11 0
-136 -85 -81 -41 -29 -11 0
-137 -86 -81 -44 -29 -11 0
-138 -87 -81 -47 -29 -11 0
-139 -83 -82 -35 -32 -11 0
-140 -84 -82 -38 -32 -11 0
-141 -85 -82 -41 -32 -11 0
-142 -86 -82 -44 -32 -11 0
-143 -87 -82 -47 -32 -11 0
-144 -84 -83 -38 -35 -11 0
-145 -85 -83 -41 -35 -11 0
-146 -86 -83 -44 -35 -11 0
-147 -87 -83 -47 -35 -11 0
-148 -85 -84 -41 -38 -11 0
-149 -86 -84 -44 -38 -11 0
-150 -87 -84 -47 -38 -11 0
-151 -86 -85 -44 -41 -11 0
-152 -87 -85 -47 -41 -11 0
-153 -87 -86 -47 -44 -11 0
-99 -89 -88 -20 -17 -14 0
-100 -90 -88 -23 -17 -14 0
-101 -91 -88 -26 -17 -14 0
-102 -92 -88 -29 -17 -14 0
-103 -93 -88 -32 -17 -14 0
-104 -94 -88 -35 -17 -14 0
-105 -95 -88 -38 -17 -14 0
-106 -96 -88 -41 -17 -14 0
-107 -97 -88 -44 -17 -14 0
-108 -98 -88 -47 -17 -14 0
-109 -90 -89 -23 -20 -14 0
-110 -91 -89 -26 -20 -14 0
-111 -92 -89 -29 -20 -14 0
-112 -93 -89 -32 -20 -14 0
-113 -94 -89 -35 -20 -14 0
-114 -95 -89 -38 -20 -14 0
-115 -96 -89 -41 -20 -14 0
-116 -97 -89 -44 -20 -14 0
-117 -98 -89 -47 -20 -14 0
-118 -91 -90 -26 -23 -14 0
-119 -92 -90 -29 -23 -14 0
-120 -93 -90 -32 -23 -14 0
-121 -94 -90 -35 -23 -14 0
-122 -95 -90 -38 -23 -14 0
-123 -96 -90 -41 -23 -14 0
-124 -97 -90 -44 -23 -14 0
-125 -98 -90 -47 -23 -14 0
-126 -92 -91 -29 -26 -14 0
-127 -93 -91 -32 -26 -14 0
-128 -94 -91 -35 -26 -14 0
-129 -95 -91 -38 -26 -14 0
-130 -96 -91 -41 -26 -14 0
-131 -97 -91 -44 -26 -14 0
-132 -98 -91 -47 -26 -14 0
-133 -93 -92 -32 -29 -14 0
-134 -94 -92 -35 -29 -14 0
-135 -95 -92 -38 -29 -14 0
-136 -96 -92 -41 -29 -14 0
-137 -97 -92 -44 -29 -14 0
-138 -98 -92 -47 -29 -14 0
-139 -94 -93 -35 -32 -14 0
-140 -95 -93 -38 -32 -14 0
-141 -96 -93 -41 -32 -14 0
-142 -97 -93 -44 -32 -14 0
-143 -98 -93 -47 -32 -14 0
-144 -95 -94 -38 -35 -14 0
-145 -96 -94 -41 -35 -14 0
-146 -97 -94 -44 -35 -14 0
-147 -98 -94 -47 -35 -14 0
-148 -96 -95 -41 -38 -14 0
-149 -97 -95 -44 -38 -14 0
-150 -98 -95 -47 -38 -14 0
-151 -97 -96 -44 -41 -14 0
-152 -98 -96 -47 -41 -14 0
-153 -98 -97 -47 -44 -14 0
-109 -100 -99 -23 -20 -17 0
-110 -101 -99 -26 -20 -17 0
-111 -102 -99 -29 -20 -17 0
-112 -103 -99 -32 -20 -17 0
-113 -104 -99 -35 -20 -17 0
-114 -105 -99 -38 -20 -17 0
-115 -106 -99 -41 -20 -17 0
-116 -107 -99 -44 -20 -17 0
-117 -108 -99 -47 -20 -17 0
-118 -101 -100 -26 -23 -17 0
-119 -102 -100 -29 -23 -17 0
-120 -103 -100 -32 -23 -17 0
-121 -104 -100 -35 -23 -17 0
-122 -105 -100 -38 -23 -17 0
-123 -106 -100 -41 -23 -17 0
-124 -107 -100 -44 -23 -17 0
-125 -108 -100 -47 -23 -17 0
-126 -102 -101 -29 -26 -17 0
-127 -103 -101 -32 -26 -17 0
-128 -104 -101 -35 -26 -17 0
-129 -105 -101 -38 -26 -17 0
-130 -106 -101 -41 -26 -17 0
-131 -107 -101 -44 -26 -17 0
-132 -108 -101 -47 -26 -17 0
-133 -103 -102 -32 -29 -17 0
-134 -104 -102 -35 -29 -17 0
-135 -105 -102 -38 -29 -17 0
-136 -106 -102 -41 -29 -17 0
-137 -107 -102 -44 -29 -17 0
-138 -108 -102 -47 -29 -17 0
-139 -104 -103 -35 -32 -17 0
-140 -105 -103 -38 -32 -17 0
-141 -106 -103 -41 -32 -17 0
-142 -107 -103 -44 -32 -17 0
-143 -108 -103 -47 -32 -17 0
-144 -105 -104 -38 -35 -17 0
-145 -106 -104 -41 -35 -17 0
-146 -107 -104 -44 -35 -17 0
-147 -108 -104 -47 -35 -17 0
-148 -106 -105 -41 -38 -17 0
-149 -107 -105 -44 -38 -17 0
-150 -108 -105 -47 -38 -17 0
-151 -107 -106 -44 -41 -17 0
-152 -108 -106 -47 -41 -17 0
-153 -108 -107 -47 -44 -17 0
-118 -110 -109 -26 -23 -20 0
-119 -111 -109 -29 -23 -20 0
-120 -112 -109 -32 -23 -20 0
-121 -113 -109 -35 -23 -20 0
-122 -114 -109 -38 -23 -20 0
-123 -115 -109 -41 -23 -20 0
-124 -116 -109 -44 -23 -20 0
-125 -117 -109 -47 -23 -20 0
-126 -111 -110 -29 -26 -20 0
-127 -112 -110 -32 -26 -20 0
-128 -113 -110 -35 -26 -20 0
-129 -114 -110 -38 -26 -20 0
-130 -115 -110 -41 -26 -20 0
-131 -116 -110 -44 -26 -20 0
-132 -117 -110 -47 -26 -20 0
-133 -112 -111 -32 -29 -20 0
-134 -113 -111 -35 -29 -20 0
-135 -114 -111 -38 -29 -20 0
-136 -115 -111 -41 -29 -20 0
-137 -116 -111 -44 -29 -20 0
-138 -117 -111 -47 -29 -20 0
-139 -113 -112 -35 -32 -20 0
-140 -114 -112 -38 -32 -20 0
-141 -115 -112 -41 -32 -20 0
-142 -116 -112 -44 -32 -20 0
-143 -117 -112 -47 -32 -20 0
-144 -114 -113 -38 -35 -20 0
-145 -115 -113 -41 -35 -20 0
-146 -116 -113 -44 -35 -20 0
-147 -117 -113 -47 -35 -20 0
-148 -115 -114 -41 -38 -20 0
-149 -116 -114 -44 -38 -20 0
-150 -117 -114 -47 -38 -20 0
-151 -116 -115 -44 -41 -20 0
-152 -117 -115 -47 -41 -20 0
-153 -117 -116 -47 -44 -20 0
-126 -119 -118 -29 -26 -23 0
-127 -120 -118 -32 -26 -23 0
-128 -121 -118 -35 -26 -23 0
-129 -122 -118 -38 -26 -23 0
-130 -123 -118 -41 -26 -23 0
-131 -124 -118 -44 -26 -23 0
-132 -125 -118 -47 -26 -23 0
-133 -120 -119 -32 -29 -23 0
-134 -121 -119 -35 -29 -23 0
-135 -122 -119 -38 -29 -23 0
-136 -123 -119 -41 -29 -23 0
-137 -124 -119 -44 -29 -23 0
-138 -125 -119 -47 -29 -23 0
-139 -121 -120 -35 -32 -23 0
-140 -122 -120 -38 -32 -23 0
-141 -123 -120 -41 -32 -23 0
-142 -124 -120 -44 -32 -23 0
-143 -125 -120 -47 -32 -23 0
-144 -122 -121 -38 -35 -23 0
-145 -123 -121 -41 -35 -23 0
-146 -124 -121 -44 -35 -23 0
-147 -125 -121 -47 -35 -23 0
-148 -123 -122 -41 -38 -23 0
-149 -124 -122 -44 -38 -23 0
-150 -125 -122 -47 -38 -23 0
-151 -124 -123 -44 -41 -23 0
-152 -125 -123 -47 -41 -23 0
-153 -125 -124 -47 -44 -23 0
-133 -127 -126 -32 -29 -26 0
-134 -128 -126 -35 -29 -26 0
-135 -129 -126 -38 -29 -26 0
-136 -130 -126 -41 -29 -26 0
-137 -131 -126 -44 -29 -26 0
-138 -132 -126 -47 -29 -26 0
-139 -128 -127 -35 -32 -26 0
-140 -129 -127 -38 -32 -26 0
-141 -130 -127 -41 -32 -26 0
-142 -131 -127 -44 -32 -26 0
-143 -132 -127 -47 -32 -26 0
-144 -129 -128 -38 -35 -26 0
-145 -130 -128 -41 -35 -26 0
-146 -131 -128 -44 -35 -26 0
-147 -132 -128 -47 -35 -26 0
-148 -130 -129 -41 -38 -26 0
-149 -131 -129 -44 -38 -26 0
-150 -132 -129 -47 -38 -26 0
-151 -131 -130 -44 -41 -26 0
-152 -132 -130 -47 -41 -26 0
-153 -132 -131 -47 -44 -26 0
-139 -134 -133 -35 -32 -29 0
-140 -135 -133 -38 -32 -29 0
-141 -136 -133 -41 -32 -29 0
-142 -137 -133 -44 -32 -29 0
-143 -138 -133 -47 -32 -29 0
-144 -135 -134 -38 -35 -29 0
-145 -136 -134 -41 -35 -29 0
-146 -137 -134 -44 -35 -29 0
-147 -138 -134 -47 -35 -29 0
-148 -136 -135 -41 -38 -29 0
-149 -137 -135 -44 -38 -29 0
-150 -138 -135 -47 -38 -29 0
-151 -137 -136 -44 -41 -29 0
-152 -138 -136 -47 -41 -29 0
-153 -138 -137 -47 -44 -29 0
-144 -140 -139 -38 -35 -32 0
-145 -141 -139 -41 -35 -32 0
-146 -142 -139 -44 -35 -32 0
-147 -143 -139 -47 -35 -32 0
-148 -141 -140 -41 -38 -32 0
-149 -142 -140 -44 -38 -32 0
-150 -143 -140 -47 -38 -32 0
-151 -142 -141 -44 -41 -32 0
-152 -143 -141 -47 -41 -32 0
-153 -143 -142 -47 -44 -32 0
-148 -145 -144 -41 -38 -35 0
-149 -146 -144 -44 -38 -35 0
-150 -147 -144 -47 -38 -35 0
-151 -146 -145 -44 -41 -35 0
-152 -147 -145 -47 -41 -35 0
-153 -147 -146 -47 -44 -35 0
-151 -149 -148 -44 -41 -38 0
-152 -150 -148 -47 -41 -38 0
-153 -150 -149 -47 -44 -38 0
-153 -152 -151 -47 -44 -41 0
-63 -50 -49 -10 -7 -1 0
-64 -51 -49 -13 -7 -1 0
-65 -52 -49 -16 -7 -1 0
-66 -53 -49 -19 -7 -1 0
-67 -54 -49 -22 -7 -1 0
-68 -55 -49 -25 -7 -1 0
-69 -56 -49 -28 -7 -1 0
-70 -57 -49 -31 -7 -1 0
-71 -58 -49 -34 -7 -1 0
-72 -59 -49 -37 -7 -1 0
-73 -60 -49 -40 -7 -1 0
-74 -61 -49 -43 -7 -1 0
-75 -62 -49 -46 -7 -1 0
-76 -51 -50 -13 -10 -1 0
-77 -52 -50 -16 -10 -1 0
-78 -53 -50 -19 -10 -1 0
-79 -54 -50 -22 -10 -1 0
-80 -55 -50 -25 -10 -1 0
-81 -56 -50 -28 -10 -1 0
-82 -57 -50 -31 -10 -1 0
-83 -58 -50 -34 -10 -1 0
-84 -59 -50 -37 -10 -1 0
-85 -60 -50 -40 -10 -1 0
-86 -61 -50 -43 -10 -1 0
-87 -62 -50 -46 -10 -1 0
-88 -52 -51 -16 -13 -1 0
-89 -53 -51 -19 -13 -1 0
-90 -54 -51 -22 -13 -1 0
-91 -55 -51 -25 -13 -1 0
-92 -56 -51 -28 -13 -1 0
-93 -57 -51 -31 -13 -1 0
-94 -58 -51 -34 -13 -1 0
-95 -59 -51 -37 -13 -1 0
-96 -60 -51 -40 -13 -1 0
-97 -61 -51 -43 -13 -1 0
-98 -62 -51 -46 -13 -1 0
-99 -53 -52 -19 -16 -1 0
-100 -54 -52 -22 -16 -1 0
-101 -55 -52 -25 -16 -1 0
-102 -56 -52 -28 -16 -1 0
-103 -57 -52 -31 -16 -1 0
-104 -58 -52 -34 -16 -1 0
-105 -59 -52 -37 -16 -1 0
-106 -60 -52 -40 -16 -1 0
-107 -61 -52 -43 -16 -1 0
-108 -62 -52 -46 -16 -1 0
-109 -54 -53 -22 -19 -1 0
-110 -55 -53 -25 -19 -1 0
-111 -56 -53 -28 -19 -1 0
-112 -57 -53 -31 -19 -1 0
-113 -58 -53 -34 -19 -1 0
-114 -59 -53 -37 -19 -1 0
-115 -60 -53 -40 -19 -1 0
-116 -61 -53 -43 -19 -1 0
-117 -62 -53 -46 -19 -1 0
-118 -55 -54 -25 -22 -1 0
-119 -56 -54 -28 -22 -1 0
-120 -57 -54 -31 -22 -1 0
-121 -58 -54 -34 -22 -1 0
-122 -59 -54 -37 -22 -1 0
-123 -60 -54 -40 -22 -1 0
-124 -61 -54 -43 -22 -1 0
-125 -62 -54 -46 -22 -1 0
-126 -56 -55 -28 -25 -1 0
-127 -57 -55 -31 -25 -1 0
-128 -58 -55 -34 -25 -1 0
-129 -59 -55 -37 -25 -1 0
-130 -60 -55 -40 -25 -1 0
-131 -61 -55 -43 -25 -1 0
-132 -62 -55 -46 -25 -1 0
-133 -57 -56 -31 -28 -1 0
-134 -58 -56 -34 -28 -1 0
-135 -59 -56 -37 -28 -1 0
-136 -60 -56 -40 -28 -1 0
-137 -61 -56 -43 -28 -1 0
-138 -62 -56 -46 -28 -1 0
-139 -58 -57 -34 -31 -1 0
-140 -59 -57 -37 -31 -1 0
-141 -60 -57 -40 -31 -1 0
-142 -61 -57 -43 -31 -1 0
-143 -62 -57 -46 -31 -1 0
-144 -59 -58 -37 -34 -1 0
-145 -60 -58 -40 -34 -1 0
-146 -61 -58 -43 -34 -1 0
-147 -62 -58 -46 -34 -1 0
-148 -60 -59 -40 -37 -1 0
-149 -61 -59 -43 -37 -1 0
-150 -62 -59 -46 -37 -1 0
-151 -61 -60 -43 -40 -1 0
-152 -62 -60 -46 -40 -1 0
-153 -62 -61 -46 -43 -1 0
-76 -64 -63 -13 -10 -7 0
-77 -65 -63 -16 -10 -7 0
-78 -66 -63 -19 -10 -7 0
-79 -67 -63 -22 -10 -7 0
-80 -68 -63 -25 -10 -7 0
-81 -69 -63 -28 -10 -7 0
-82 -70 -63 -31 -10 -7 0
-83 -71 -63 -34 -10 -7 0
-84 -72 -63 -37 -10 -7 0
-85 -73 -63 -40 -10 -7 0
-86 -74 -63 -43 -10 -7 0
-87 -75 -63 -46 -10 -7 0
-88 -65 -64 -16 -13 -7 0
-89 -66 -64 -19 -13 -7 0
-90 -67 -64 -22 -13 -7 0
-91 -68 -64 -25 -13 -7 0
-92 -69 -64 -28 -13 -7 0
-93 -70 -64 -31 -13 -7 0
-94 -71 -64 -34 -13 -7 0
-95 -72 -64 -37 -13 -7 0
-96 -73 -64 -40 -13 -7 0
-97 -74 -64 -43 -13 -7 0
-98 -75 -64 -46 -13 -7 0
-99 -66 -65 -19 -16 -7 0
-100 -67 -65 -22 -16 -7 0
-101 -68 -65 -25 -16 -7 0
-102 -69 -65 -28 -16 -7 0
-103 -70 -65 -31 -16 -7 0
-104 -71 -65 -34 -16 -7 0
-105 -72 -65 -37 -16 -7 0
-106 -73 -65 -40 -16 -7 0
-107 -74 -65 -43 -16 -7 0
-108 -75 -65 -46 -16 -7 0
-109 -67 -66 -22 -19 -7 0
-110 -68 -66 -25 -19 -7 0
-111 -69 -66 -28 -19 -7 0
-112 -70 -66 -31 -19 -7 0
-113 -71 -66 -34 -19 -7 0
-114 -72 -66 -37 -19 -7 0
-115 -73 -66 -40 -19 -7 0
-116 -74 -66 -43 -19 -7 0
-117 -75 -66 -46 -19 -7 0
-118 -68 -67 -25 -22 -7 0
-119 -69 -67 -28 -22 -7 0
-120 -70 -67 -31 -22 -7 0
-121 -71 -67 -34 -22 -7 0
-122 -72 -67 -37 -22 -7 0
-123 -73 -67 -40 -22 -7 0
-124 -74 -67 -43 -22 -7 0
-125 -75 -67 -46 -22 -7 0
-126 -69 -68 -28 -25 -7 0
-127 -70 -68 -31 -25 -7 0
-128 -71 -68 -34 -25 -7 0
-129 -72 -68 -37 -25 -7 0
-130 -73 -68 -40 -25 -7 0
-131 -74 -68 -43 -25 -7 0
-132 -75 -68 -46 -25 -7 0
-133 -70 -69 -31 -28 -7 0
-134 -71 -69 -34 -28 -7 0
-135 -72 -69 -37 -28 -7 0
-136 -73 -69 -40 -28 -7 0
-137 -74 -69 -43 -28 -7 0
-138 -75 -69 -46 -28 -7 0
-139 -71 -70 -34 -31 -7 0
-140 -72 -70 -37 -31 -7 0
-141 -73 -70 -40 -31 -7 0
-142 -74 -70 -43 -31 -7 0
-143 -75 -70 -46 -31 -7 0
-144 -72 -71 -37 -34 -7 0
-145 -73 -71 -40 -34 -7 0
-146 -74 -71 -43 -34 -7 0
-147 -75 -71 -46 -34 -7 0
-148 -73 -72 -40 -37 -7 0
-149 -74 -72 -43 -37 -7 0
-150 -75 -72 -46 -37 -7 0
-151 -74 -73 -43 -40 -7 0
-152 -75 -73 -46 -40 -7 0
-153 -75 -74 -46 -43 -7 0
-88 -77 -76 -16 -13 -10 0
-89 -78 -76 -19 -13 -10 0
-90 -79 -76 -22 -13 -10 0
-91 -80 -76 -25 -13 -10 0
-92 -81 -76 -28 -13 -10 0
-93 -82 -76 -31 -13 -10 0
-94 -83 -76 -34 -13 -10 0
-95 -84 -76 -37 -13 -10 0
-96 -85 -76 -40 -13 -10 0
-97 -86 -76 -43 -13 -10 0
-98 -87 -76 -46 -13 -10 0
-99 -78 -77 -19 -16 -10 0
-100 -79 -77 -22 -16 -10 0
-101 -80 -77 -25 -16 -10 0
-102 -81 -77 -28 -16 -10 0
-103 -82 -77 -31 -16 -10 0
-104 -83 -77 -34 -16 -10 0
-105 -84 -77 -37 -16 -10 0
-106 -85 -77 -40 -16 -10 0
-107 -86 -77 -43 -16 -10 0
-108 -87 -77 -46 -16 -10 0
-109 -79 -78 -22 -19 -10 0
-110 -80 -78 -25 -19 -10 0
-111 -81 -78 -28 -19 -10 0
-112 -82 -78 -31 -19 -10 0
-113 -83 -78 -34 -19 -10 0
-114 -84 -78 -37 -19 -10 0
-115 -85 -78 -40 -19 -10 0
-116 -86 -78 -43 -19 -10 0
-117 -87 -78 -46 -19 -10 0
-118 -80 -79 -25 -22 -10 0
-119 -81 -79 -28 -22 -10 0
-120 -82 -79 -31 -22 -10 0
-121 -83 -79 -34 -22 -10 0
-122 -84 -79 -37 -22 -10 0
-123 -85 -79 -40 -22 -10 0
-124 -86 -79 -43 -22 -10 0
-125 -87 -79 -46 -22 -10 0
-126 -81 -80 -28 -25 -10 0
-127 -82 -80 -31 -25 -10 0
-128 -83 -80 -34 -25 -10 0
-129 -84 -80 -37 -25 -10 0
-130 -85 -80 -40 -25 -10 0
-131 -86 -80 -43 -25 -10 0
-132 -87 -80 -46 -25 -10 0
-133 -82 -81 -31 -28 -10 0
-134 -83 -81 -34 -28 -10 0
-135 -84 -81 -37 -28 -10 0
-136 -85 -81 -40 -28 -10 0
-137 -86 -81 -43 -28 -10 0
-138 -87 -81 -46 -28 -10 0
-139 -83 -82 -34 -31 -10 0
-140 -84 -82 -37 -31 -10 0
-141 -85 -82 -40 -31 -10 0
-142 -86 -82 -43 -31 -10 0
-143 -87 -82 -46 -31 -10 0
-144 -84 -83 -37 -34 -10 0
-145 -85 -83 -40 -34 -10 0
-146 -86 -83 -43 -34 -10 0
-147 -87 -83 -46 -34 -10 0
-148 -85 -84 -40 -37 -10 0
-149 -86 -84 -43 -37 -10 0
-150 -87 -84 -46 -37 -10 0
-151 -86 -85 -43 -40 -10 0
-152 -87 -85 -46 -40 -10 0
-153 -87 -86 -46 -43 -10 0
-99 -89 -88 -19 -16 -13 0
-100 -90 -88 -22 -16 -13 0
-101 -91 -88 -25 -16 -13 0
-102 -92 -88 -28 -16 -13 0
-103 -93 -88 -31 -16 -13 0
-104 -94 -88 -34 -16 -13 0
-105 -95 -88 -37 -16 -13 0
-106 -96 -88 -40 -16 -13 0
-107 -97 -88 -43 -16 -13 0
-108 -98 -88 -46 -16 -13 0
-109 -90 -89 -22 -19 -13 0
-110 -91 -89 -25 -19 -13 0
-111 -92 -89 -28 -19 -13 0
-112 -93 -89 -31 -19 -13 0
-113 -94 -89 -34 -19 -13 0
-114 -95 -89 -37 -19 -13 0
-115 -96 -89 -40 -19 -13 0
-116 -97 -89 -43 -19 -13 0
-117 -98 -89 -46 -19 -13 0
-118 -91 -90 -25 -22 -13 0
-119 -92 -90 -28 -22 -13 0
-120 -93 -90 -31 -22 -13 0
-121 -94 -90 -34 -22 -13 0
-122 -95 -90 -37 -22 -13 0
-123 -96 -90 -40 -22 -13 0
-124 -97 -90 -43 -22 -13 0
-125 -98 -90 -46 -22 -13 0
-126 -92 -91 -28 -25 -13 0
-127 -93 -91 -31 -25 -13 0
-128 -94 -91 -34 -25 -13 0
-129 -95 -91 -37 -25 -13 0
-130 -96 -91 -40 -25 -13 0
-131 -97 -91 -43 -25 -13 0
-132 -98 -91 -46 -25 -13 0
-133 -93 -92 -31 -28 -13 0
-134 -94 -92 -34 -28 -13 0
-135 -95 -92 -37 -28 -13 0
-136 -96 -92 -40 -28 -13 0
-137 -97 -92 -43 -28 -13 0
-138 -98 -92 -46 -28 -13 0
-139 -94 -93 -34 -31 -13 0
-140 -95 -93 -37 -31 -13 0
-141 -96 -93 -40 -31 -13 0
-142 -97 -93 -43 -31 -13 0
-143 -98 -93 -46 -31 -13 0
-144 -95 -94 -37 -34 -13 0
-145 -96 -94 -40 -34 -13 0
-146 -97 -94 -43 -34 -13 0
-147 -98 -94 -46 -34 -13 0
-148 -96 -95 -40 -37 -13 0
-149 -97 -95 -43 -37 -13 0
-150 -98 -95 -46 -37 -13 0
-151 -97 -96 -43 -40 -13 0
-152 -98 -96 -46 -40 -13 0
-153 -98 -97 -46 -43 -13 0
-109 -100 -99 -22 -19 -16 0
-110 -101 -99 -25 -19 -16 0
-111 -102 -99 -28 -19 -16 0
-112 -103 -99 -31 -19 -16 0
-113 -104 -99 -34 -19 -16 0
-114 -105 -99 -37 -19 -16 0
-115 -106 -99 -40 -19 -16 0
-116 -107 -99 -43 -19 -16 0
-117 -108 -99 -46 -19 -16 0
-118 -101 -100 -25 -22 -16 0
-119 -102 -100 -28 -22 -16 0
-120 -103 -100 -31 -22 -16 0
-121 -104 -100 -34 -22 -16 0
-122 -105 -100 -37 -22 -16 0
-123 -106 -100 -40 -22 -16 0
-124 -107 -100 -43 -22 -16 0
-125 -108 -100 -46 -22 -16 0
-126 -102 -101 -28 -25 -16 0
-127 -103 -101 -31 -25 -16 0
-128 -104 -101 -34 -25 -16 0
-129 -105 -101 -37 -25 -16 0
-130 -106 -101 -40 -25 -16 0
-131 -107 -101 -43 -25 -16 0
-132 -108 -101 -46 -25 -16 0
-133 -103 -102 -31 -28 -16 0
-134 -104 -102 -34 -28 -16 0
-135 -105 -102 -37 -28 -16 0
-136 -106 -102 -40 -28 -16 0
-137 -107 -102 -43 -28 -16 0
-138 -108 -102 -46 -28 -16 0
-139 -104 -103 -34 -31 -16 0
-140 -105 -103 -37 -31 -16 0
-141 -106 -103 -40 -31 -16 0
-142 -107 -103 -43 -31 -16 0
-143 -108 -103 -46 -31 -16 0
-144 -105 -104 -37 -34 -16 0
-145 -106 -104 -40 -34 -16 0
-146 -107 -104 -43 -34 -16 0
-147 -108 -104 -46 -34 -16 0
-148 -106 -105 -40 -37 -16 0
-149 -107 -105 -43 -37 -16 0
-150 -108 -105 -46 -37 -16 0
-151 -107 -106 -43 -40 -16 0
-152 -108 -106 -46 -40 -16 0
-153 -108 -107 -46 -43 -16 0
-118 -110 -109 -25 -22 -19 0
-119 -111 -109 -28 -22 -19 0
-120 -112 -109 -31 -22 -19 0
-121 -113 -109 -34 -22 -19 0
-122 -114 -109 -37 -22 -19 0
-123 -115 -109 -40 -22 -19 0
-124 -116 -109 -43 -22 -19 0
-125 -117 -109 -46 -22 -19 0
-126 -111 -110 -28 -25 -19 0
-127 -112 -110 -31 -25 -19 0
-128 -113 -110 -34 -25 -19 0
-129 -114 -110 -37 -25 -19 0
-130 -115 -110 -40 -25 -19 0
-131 -116 -110 -43 -25 -19 0
-132 -117 -110 -46 -25 -19 0
-133 -112 -111 -31 -28 -19 0
-134 -113 -111 -34 -28 -19 0
-135 -114 -111 -37 -28 -19 0
-136 -115 -111 -40 -28 -19 0
-137 -116 -111 -43 -28 -19 0
-138 -117 -111 -46 -28 -19 0
-139 -113 -112 -34 -31 -19 0
-140 -114 -112 -37 -31 -19 0
-141 -115 -112 -40 -31 -19 0
-142 -116 -112 -43 -31 -19 0
-143 -117 -112 -46 -31 -19 0
-144 -114 -113 -37 -34 -19 0
-145 -115 -113 -40 -34 -19 0
-146 -116 -113 -43 -34 -19 0
-147 -117 -113 -46 -34 -19 0
-148 -115 -114 -40 -37 -19 0
-149 -116 -114 -43 -37 -19 0
-150 -117 -114 -46 -37 -19 0
-151 -116 -115 -43 -40 -19 0
-152 -117 -115 -46 -40 -19 0
-153 -117 -116 -46 -43 -19 0
-126 -119 -118 -28 -25 -22 0
-127 -120 -118 -31 -25 -22 0
-128 -121 -118 -34 -25 -22 0
-129 -122 -118 -37 -25 -22 0
-130 -123 -118 -40 -25 -22 0
-131 -124 -118 -43 -25 -22 0
-132 -125 -118 -46 -25 -22 0
-133 -120 -119 -31 -28 -22 0
-134 -121 -119 -34 -28 -22 0
-135 -122 -119 -37 -28 -22 0
-136 -123 -119 -40 -28 -22 0
-137 -124 -119 -43 -28 -22 0
-138 -125 -119 -46 -28 -22 0
-139 -121 -120 -34 -31 -22 0
-140 -122 -120 -37 -31 -22 0
-141 -123 -120 -40 -31 -22 0
-142 -124 -120 -43 -31 -22 0
-143 -125 -120 -46 -31 -22 0
-144 -122 -121 -37 -34 -22 0
-145 -123 -121 -40 -34 -22 0
-146 -124 -121 -43 -34 -22 0
-147 -125 -121 -46 -34 -22 0
-148 -123 -122 -40 -37 -22 0
-149 -124 -122 -43 -37 -22 0
-150 -125 -122 -46 -37 -22 0
-151 -124 -123 -43 -40 -22 0
-152 -125 -123 -46 -40 -22 0
-153 -125 -124 -46 -43 -22 0
-133 -127 -126 -31 -28 -25 0
-134 -128 -126 -34 -28 -25 0
-135 -129 -126 -37 -28 -25 0
-136 -130 -126 -40 -28 -25 0
-137 -131 -126 -43 -28 -25 0
-138 -132 -126 -46 -28 -25 0
-139 -128 -127 -34 -31 -25 0
-140 -129 -127 -37 -31 -25 0
-141 -130 -127 -40 -31 -25 0
-142 -131 -127 -43 -31 -25 0
-143 -132 -127 -46 -31 -25 0
-144 -129 -128 -37 -34 -25 0
-145 -130 -128 -40 -34 -25 0
-146 -131 -128 -43 -34 -25 0
-147 -132 -128 -46 -34 -25 0
-148 -130 -129 -40 -37 -25 0
-149 -131 -129 -43 -37 -25 0
-150 -132 -129 -46 -37 -25 0
-151 -131 -130 -43 -40 -25 0
-152 -132 -130 -46 -40 -25 0
-153 -132 -131 -46 -43 -25 0
-139 -134 -133 -34 -31 -28 0
-140 -135 -133 -37 -31 -28 0
-141 -136 -133 -40 -31 -28 0
-142 -137 -133 -43 -31 -28 0
-143 -138 -133 -46 -31 -28 0
-144 -135 -134 -37 -34 -28 0
-145 -136 -134 -40 -34 -28 0
-146 -137 -134 -43 -34 -28 0
-147 -138 -134 -46 -34 -28 0
-148 -136 -135 -40 -37 -28 0
-149 -137 -135 -43 -37 -28 0
-150 -138 -135 -46 -37 -28 0
-151 -137 -136 -43 -40 -28 0
-152 -138 -136 -46 -40 -28 0
-153 -138 -137 -46 -43 -28 0
-144 -140 -139 -37 -34 -31 0
-145 -141 -139 -40 -34 -31 0
-146 -142 -139 -43 -34 -31 0
-147 -143 -139 -46 -34 -31 0
-148 -141 -140 -40 -37 -31 0
-149 -142 -140 -43 -37 -31 0
-150 -143 -140 -46 -37 -31 0
-151 -142 -141 -43 -40 -31 0
-152 -143 -141 -46 -40 -31 0
-153 -143 -142 -46 -43 -31 0
-148 -145 -144 -40 -37 -34 0
-149 -146 -144 -43 -37 -34 0
-150 -147 -144 -46 -37 -34 0
-151 -146 -145 -43 -40 -34 0
-152 -147 -145 -46 -40 -34 0
-153 -147 -146 -46 -43 -34 0
-151 -149 -148 -43 -40 -37 0
-152 -150 -148 -46 -40 -37 0
-153 -150 -149 -46 -43 -37 0
-153 -152 -151 -46 -43 -40 0
-76 -64 -63 -51 -50 -49 0
-77 -65 -63 -52 -50 -49 0
-78 -66 -63 -53 -50 -49 0
-79 -67 -63 -54 -50 -49 0
-80 -68 -63 -55 -50 -49 0
-81 -69 -63 -56 -50 -49 0
-82 -70 -63 -57 -50 -49 0
-83 -71 -63 -58 -50 -49 0
-84 -72 -63 -59 -50 -49 0
-85 -73 -63 -60 -50 -49 0
-86 -74 -63 -61 -50 -49 0
-87 -75 -63 -62 -50 -49 0
-88 -65 -64 -52 -51 -49 0
-89 -66 -64 -53 -51 -49 0
-90 -67 -64 -54 -51 -49 0
-91 -68 -64 -55 -51 -49 0
-92 -69 -64 -56 -51 -49 0
-93 -70 -64 -57 -51 -49 0
-94 -71 -64 -58 -51 -49 0
-95 -72 -64 -59 -51 -49 0
-96 -73 -64 -60 -51 -49 0
-97 -74 -64 -61 -51 -49 0
-98 -75 -64 -62 -51 -49 0
-99 -66 -65 -53 -52 -49 0
-100 -67 -65 -54 -52 -49 0
-101 -68 -65 -55 -52 -49 0
-102 -69 -65 -56 -52 -49 0
-103 -70 -65 -57 -52 -49 0
-104 -71 -65 -58 -52 -49 0
-105 -72 -65 -59 -52 -49 0
-106 -73 -65 -60 -52 -49 0
-107 -74 -65 -61 -52 -49 0
-108 -75 -65 -62 -52 -49 0
-109 -67 -66 -54 -53 -49 0
-110 -68 -66 -55 -53 -49 0
-111 -69 -66 -56 -53 -49 0
-112 -70 -66 -57 -53 -49 0
-113 -71 -66 -58 -53 -49 0
-114 -72 -66 -59 -53 -49 0
-115 -73 -66 -60 -53 -49 0
-116 -74 -66 -61 -53 -49 0
-117 -75 -66 -62 -53 -49 0
-118 -68 -67 -55 -54 -49 0
-119 -69 -67 -56 -54 -49 0
-120 -70 -67 -57 -54 -49 0
-121 -71 -67 -58 -54 -49 0
-122 -72 -67 -59 -54 -49 0
-123 -73 -67 -60 -54 -49 0
-124 -74 -67 -61 -54 -49 0
-125 -75 -67 -62 -54 -49 0
-126 -69 -68 -56 -55 -49 0
-127 -70 -68 -57 -55 -49 0
-128 -71 -68 -58 -55 -49 0
-129 -72 -68 -59 -55 -49 0
-130 -73 -68 -60 -55 -49 0
-131 -74 -68 -61 -55 -49 0
-132 -75 -68 -62 -55 -49 0
-133 -70 -69 -57 -56 -49 0
-134 -71 -69 -58 -56 -49 0
-135 -72 -69 -59 -56 -49 0
-136 -73 -69 -60 -56 -49 0
-137 -74 -69 -61 -56 -49 0
-138 -75 -69 -62 -56 -49 0
-139 -71 -70 -58 -57 -49 0
-140 -72 -70 -59 -57 -49 0
-141 -73 -70 -60 -57 -49 0
-142 -74 -70 -61 -57 -49 0
-143 -75 -70 -62 -57 -49 0
-144 -72 -71 -59 -58 -49 0
-145 -73 -71 -60 -58 -49 0
-146 -74 -71 -61 -58 -49 0
-147 -75 -71 -62 -58 -49 0
-148 -73 -72 -60 -59 -49 0
-149 -74 -72 -61 -59 -49 0
-150 -75 -72 -62 -59 -49 0
-151 -74 -73 -61 -60 -49 0
-152 -75 -73 -62 -60 -49 0
-153 -75 -74 -62 -61 -49 0
-88 -77 -76 -52 -51 -50 0
-89 -78 -76 -53 -51 -50 0
-90 -79 -76 -54 -51 -50 0
-91 -80 -76 -55 -51 -50 0
-92 -81 -76 -56 -51 -50 0
-93 -82 -76 -57 -51 -50 0
-94 -83 -76 -58 -51 -50 0
-95 -84 -76 -59 -51 -50 0
-96 -85 -76 -60 -51 -50 0
-97 -86 -76 -61 -51 -50 0
-98 -87 -76 -62 -51 -50 0
-99 -78 -77 -53 -52 -50 0
-100 -79 -77 -54 -52 -50 0
-101 -80 -77 -55 -52 -50 0
-102 -81 -77 -56 -52 -50 0
-103 -82 -77 -57 -52 -50 0
-104 -83 -77 -58 -52 -50 0
-105 -84 -77 -59 -52 -50 0
-106 -85 -77 -60 -52 -50 0
-107 -86 -77 -61 -52 -50 0
-108 -87 -77 -62 -52 -50 0
-109 -79 -78 -54 -53 -50 0
-110 -80 -78 -55 -53 -50 0
-111 -81 -78 -56 -53 -50 0
-112 -82 -78 -57 -53 -50 0
-113 -83 -78 -58 -53 -50 0
-114 -84 -78 -59 -53 -50 0
-115 -85 -78 -60 -53 -50 0
-116 -86 -78 -61 -53 -50 0
-117 -87 -78 -62 -53 -50 0
-118 -80 -79 -55 -54 -50 0
-119 -81 -79 -56 -54 -50 0
-120 -82 -79 -57 -54 -50 0
-121 -83 -79 -58 -54 -50 0
-122 -84 -79 -59 -54 -50 0
-123 -85 -79 -60 -54 -50 0
-124 -86 -79 -61 -54 -50 0
-125 -87 -79 -62 -54 -50 0
-126 -81 -80 -56 -55 -50 0
-127 -82 -80 -57 -55 -50 0
-128 -83 -80 -58 -55 -50 0
-129 -84 -80 -59 -55 -50 0
-130 -85 -80 -60 -55 -50 0
-131 -86 -80 -61 -55 -50 0
-132 -87 -80 -62 -55 -50 0
-133 -82 -81 -57 -56 -50 0
-134 -83 -81 -58 -56 -50 0
-135 -84 -81 -59 -56 -50 0
-136 -85 -81 -60 -56 -50 0
-137 -86 -81 -61 -56 -50 0
-138 -87 -81 -62 -56 -50 0
-139 -83 -82 -58 -57 -50 0
-140 -84 -82 -59 -57 -50 0
-141 -85 -82 -60 -57 -50 0
-142 -86 -82 -61 -57 -50 0
-143 -87 -82 -62 -57 -50 0
-144 -84 -83 -59 -58 -50 0
-145 -85 -83 -60 -58 -50 0
-146 -86 -83 -61 -58 -50 0
-147 -87 -83 -62 -58 -50 0
-148 -85 -84 -60 -59 -50 0
-149 -86 -84 -61 -59 -50 0
-150 -87 -84 -62 -59 -50 0
-151 -86 -85 -61 -60 -50 0
-152 -87 -85 -62 -60 -50 0
-153 -87 -86 -62 -61 -50 0
-99 -89 -88 -53 -52 -51 0
-100 -90 -88 -54 -52 -51 0
-101 -91 -88 -55 -52 -51 0
-102 -92 -88 -56 -52 -51 0
-103 -93 -88 -57 -52 -51 0
-104 -94 -88 -58 -52 -51 0
-105 -95 -88 -59 -52 -51 0
-106 -96 -88 -60 -52 -51 0
-107 -97 -88 -61 -52 -51 0
-108 -98 -88 -62 -52 -51 0
-109 -90 -89 -54 -53 -51 0
-110 -91 -89 -55 -53 -51 0
-111 -92 -89 -56 -53 -51 0
-112 -93 -89 -57 -53 -51 0
-113 -94 -89 -58 -53 -51 0
-114 -95 -89 -59 -53 -51 0
-115 -96 -89 -60 -53 -51 0
-116 -97 -89 -61 -53 -51 0
-117 -98 -89 -62 -53 -51 0
-118 -91 -90 -55 -54 -51 0
-119 -92 -90 -56 -54 -51 0
-120 -93 -90 -57 -54 -51 0
-121 -94 -90 -58 -54 -51 0
-122 -95 -90 -59 -54 -51 0
-123 -96 -90 -60 -54 -51 0
-124 -97 -90 -61 -54 -51 0
-125 -98 -90 -62 -54 -51 0
-126 -92 -91 -56 -55 -51 0
-127 -93 -91 -57 -55 -51 0
-128 -94 -91 -58 -55 -51 0
-129 -95 -91 -59 -55 -51 0
-130 -96 -91 -60 -55 -51 0
-131 -97 -91 -61 -55 -51 0
-132 -98 -91 -62 -55 -51 0
-133 -93 -92 -57 -56 -51 0
-134 -94 -92 -58 -56 -51 0
-135 -95 -92 -59 -56 -51 0
-136 -96 -92 -60 -56 -51 0
-137 -97 -92 -61 -56 -51 0
-138 -98 -92 -62 -56 -51 0
-139 -94 -93 -58 -57 -51 0
-140 -95 -93 -59 -57 -51 0
-141 -96 -93 -60 -57 -51 0
-142 -97 -93 -61 -57 -51 0
-143 -98 -93 -62 -57 -51 0
-144 -95 -94 -59 -58 -51 0
-145 -96 -94 -60 -58 -51 0
-146 -97 -94 -61 -58 -51 0
-147 -98 -94 -62 -58 -51 0
-148 -96 -95 -60 -59 -51 0
-149 -97 -95 -61 -59 -51 0
-150 -98 -95 -62 -59 -51 0
-151 -97 -96 -61 -60 -51 0
-152 -98 -96 -62 -60 -51 0
-153 -98 -97 -62 -61 -51 0
-109 -100 -99 -54 -53 -52 0
-110 -101 -99 -55 -53 -52 0
-111 -102 -99 -56 -53 -52 0
-112 -103 -99 -57 -53 -52 0
-113 -104 -99 -58 -53 -52 0
-114 -105 -99 -59 -53 -52 0
-115 -106 -99 -60 -53 -52 0
-116 -107 -99 -61 -53 -52 0
-117 -108 -99 -62 -53 -52 0
-118 -101 -100 -55 -54 -52 0
-119 -102 -100 -56 -54 -52 0
-120 -103 -100 -57 -54 -52 0
-121 -104 -100 -58 -54 -52 0
-122 -105 -100 -59 -54 -52 0
-123 -106 -100 -60 -54 -52 0
-124 -107 -100 -61 -54 -52 0
-125 -108 -100 -62 -54 -52 0
-126 -102 -101 -56 -55 -52 0
-127 -103 -101 -57 -55 -52 0
-128 -104 -101 -58 -55 -52 0
-129 -105 -101 -59 -55 -52 0
-130 -106 -101 -60 -55 -52 0
-131 -107 -101 -61 -55 -52 0
-132 -108 -101 -62 -55 -52 0
-133 -103 -102 -57 -56 -52 0
-134 -104 -102 -58 -56 -52 0
-135 -105 -102 -59 -56 -52 0
-136 -106 -102 -60 -56 -52 0
-137 -107 -102 -61 -56 -52 0
-138 -108 -102 -62 -56 -52 0
-139 -104 -103 -58 -57 -52 0
-140 -105 -103 -59 -57 -52 0
-141 -106 -103 -60 -57 -52 0
-142 -107 -103 -61 -57 -52 0
-143 -108 -103 -62 -57 -52 0
-144 -105 -104 -59 -58 -52 0
-145 -106 -104 -60 -58 -52 0
-146 -107 -104 -61 -58 -52 0
-147 -108 -104 -62 -58 -52 0
-148 -106 -105 -60 -59 -52 0
-149 -107 -105 -61 -59 -52 0
-150 -108 -105 -62 -59 -52 0
-151 -107 -106 -61 -60 -52 0
-152 -108 -106 -62 -60 -52 0
-153 -108 -107 -62 -61 -52 0
-118 -110 -109 -55 -54 -53 0
-119 -111 -109 -56 -54 -53 0
-120 -112 -109 -57 -54 -53 0
-121 -113 -109 -58 -54 -53 0
-122 -114 -109 -59 -54 -53 0
-123 -115 -109 -60 -54 -53 0
-124 -116 -109 -61 -54 -53 0
-125 -117 -109 -62 -54 -53 0
-126 -111 -110 -56 -55 -53 0
-127 -112 -110 -57 -55 -53 0
-128 -113 -110 -58 -55 -53 0
-129 -114 -110 -59 -55 -53 0
-130 -115 -110 -60 -55 -53 0
-131 -116 -110 -61 -55 -53 0
-132 -117 -110 -62 -55 -53 0
-133 -112 -111 -57 -56 -53 0
-134 -113 -111 -58 -56 -53 0
-135 -114 -111 -59 -56 -53 0
-136 -115 -111 -60 -56 -53 0
-137 -116 -111 -61 -56 -53 0
-138 -117 -111 -62 -56 -53 0
-139 -113 -112 -58 -57 -53 0
-140 -114 -112 -59 -57 -53 0
-141 -115 -112 -60 -57 -53 0
-142 -116 -112 -61 -57 -53 0
-143 -117 -112 -62 -57 -53 0
-144 -114 -113 -59 -58 -53 0
-145 -115 -113 -60 -58 -53 0
-146 -116 -113 -61 -58 -53 0
-147 -117 -113 -62 -58 -53 0
-148 -115 -114 -60 -59 -53 0
-149 -116 -114 -61 -59 -53 0
-150 -117 -114 -62 -59 -53 0
-151 -116 -115 -61 -60 -53 0
-152 -117 -115 -62 -60 -53 0
-153 -117 -116 -62 -61 -53 0
-126 -119 -118 -56 -55 -54 0
-127 -120 -118 -57 -55 -54 0
-128 -121 -118 -58 -55 -54 0
-129 -122 -118 -59 -55 -54 0
-130 -123 -118 -60 -55 -54 0
-131 -124 -118 -61 -55 -54 0
-132 -125 -118 -62 -55 -54 0
-133 -120 -119 -57 -56 -54 0
-134 -121 -119 -58 -56 -54 0
-135 -122 -119 -59 -56 -54 0
-136 -123 -119 -60 -56 -54 0
-137 -124 -119 -61 -56 -54 0
-138 -125 -119 -62 -56 -54 0
-139 -121 -120 -58 -57 -54 0
-140 -122 -120 -59 -57 -54 0
-141 -123 -120 -60 -57 -54 0
-142 -124 -120 -61 -57 -54 0
-143 -125 -120 -62 -57 -54 0
-144 -122 -121 -59 -58 -54 0
-145 -123 -121 -60 -58 -54 0
-146 -124 -121 -61 -58 -54 0
-147 -125 -121 -62 -58 -54 0
-148 -123 -122 -60 -59 -54 0
-149 -124 -122 -61 -59 -54 0
-150 -125 -122 -62 -59 -54 0
-151 -124 -123 -61 -60 -54 0
-152 -125 -123 -62 -60 -54 0
-153 -125 -124 -62 -61 -54 0
-133 -127 -126 -57 -56 -55 0
-134 -128 -126 -58 -56 -55 0
-135 -129 -126 -59 -56 -55 0
-136 -130 -126 -60 -56 -55 0
-137 -131 -126 -61 -56 -55 0
-138 -132 -126 -62 -56 -55 0
-139 -128 -127 -58 -57 -55 0
-140 -129 -127 -59 -57 -55 0
-141 -130 -127 -60 -57 -55 0
-142 -131 -127 -61 -57 -55 0
-143 -132 -127 -62 -57 -55 0
-144 -129 -128 -59 -58 -55 0
-145 -130 -128 -60 -58 -55 0
-146 -131 -128 -61 -58 -55 0
-147 -132 -128 -62 -58 -55 0
-148 -130 -129 -60 -59 -55 0
-149 -131 -129 -61 -59 -55 0
-150 -132 -129 -62 -59 -55 0
-151 -131 -130 -61 -60 -55 0
-152 -132 -130 -62 -60 -55 0
-153 -132 -131 -62 -61 -55 0
-139 -134 -133 -58 -57 -56 0
-140 -135 -133 -59 -57 -56 0
-141 -136 -133 -60 -57 -56 0
-142 -137 -133 -61 -57 -56 0
-143 -138 -133 -62 -57 -56 0
-144 -135 -134 -59 -58 -56 0
-145 -136 -134 -60 -58 -56 0
-146 -137 -134 -61 -58 -56 0
-147 -138 -134 -62 -58 -56 0
-148 -136 -135 -60 -59 -56 0
-149 -137 -135 -61 -59 -56 0
-150 -138 -135 -62 -59 -56 0
-151 -137 -136 -61 -60 -56 0
-152 -138 -136 -62 -60 -56 0
-153 -138 -137 -62 -61 -56 0
-144 -140 -139 -59 -58 -57 0
-145 -141 -139 -60 -58 -57 0
-146 -142 -139 -61 -58 -57 0
-147 -143 -139 -62 -58 -57 0
-148 -141 -140 -60 -59 -57 0
-149 -142 -140 -61 -59 -57 0
-150 -143 -140 -62 -59 -57 0
-151 -142 -141 -61 -60 -57 0
-152 -143 -141 -62 -60 -57 0
-153 -143 -142 -62 -61 -57 0
-148 -145 -144 -60 -59 -58 0
-149 -146 -144 -61 -59 -58 0
-150 -147 -144 -62 -59 -58 0
-151 -146 -145 -61 -60 -58 0
-152 -147 -145 -62 -60 -58 0
-153 -147 -146 -62 -61 -58 0
-151 -149 -148 -61 -60 -59 0
-152 -150 -148 -62 -60 -59 0
-153 -150 -149 -62 -61 -59 0
-153 -152 -151 -62 -61 -60 0
-88 -77 -76 -65 -64 -63 0
-89 -78 -76 -66 -64 -63 0
-90 -79 -76 -67 -64 -63 0
-91 -80 -76 -68 -64 -63 0
-92 -81 -76 -69 -64 -63 0
-93 -82 -76 -70 -64 -63 0
-94 -83 -76 -71 -64 -63 0
-95 -84 -76 -72 -64 -63 0
-96 -85 -76 -73 -64 -63 0
-97 -86 -76 -74 -64 -63 0
-98 -87 -76 -75 -64 -63 0
-99 -78 -77 -66 -65 -63 0
-100 -79 -77 -67 -65 -63 0
-101 -80 -77 -68 -65 -63 0
-102 -81 -77 -69 -65 -63 0
-103 -82 -77 -70 -65 -63 0
-104 -83 -77 -71 -65 -63 0
-105 -84 -77 -72 -65 -63 0
-106 -85 -77 -73 -65 -63 0
-107 -86 -77 -74 -65 -63 0
-108 -87 -77 -75 -65 -63 0
-109 -79 -78 -67 -66 -63 0
-110 -80 -78 -68 -66 -63 0
-111 -81 -78 -69 -66 -63 0
-112 -82 -78 -70 -66 -63 0
-113 -83 -78 -71 -66 -63 0
-114 -84 -78 -72 -66 -63 0
-115 -85 -78 -73 -66 -63 0
-116 -86 -78 -74 -66 -63 0
-117 -87 -78 -75 -66 -63 0
-118 -80 -79 -68 -67 -63 0
-119 -81 -79 -69 -67 -63 0
-120 -82 -79 -70 -67 -63 0
-121 -83 -79 -71 -67 -63 0
-122 -84 -79 -72 -67 -63 0
-123 -85 -79 -73 -67 -63 0
-124 -86 -79 -74 -67 -63 0
-125 -87 -79 -75 -67 -63 0
-126 -81 -80 -69 -68 -63 0
-127 -82 -80 -70 -68 -63 0
-128 -83 -80 -71 -68 -63 0
-129 -84 -80 -72 -68 -63 0
-130 -85 -80 -73 -68 -63 0
-131 -86 -80 -74 -68 -63 0
-132 -87 -80 -75 -68 -63 0
-133 -82 -81 -70 -69 -63 0
-134 -83 -81 -71 -69 -63 0
-135 -84 -81 -72 -69 -63 0
-136 -85 -81 -73 -69 -63 0
-137 -86 -81 -74 -69 -63 0
-138 -87 -81 -75 -69 -63 0
-139 -83 -82 -71 -70 -63 0
-140 -84 -82 -72 -70 -63 0
-141 -85 -82 -73 -70 -63 0
-142 -86 -82 -74 -70 -63 0
-143 -87 -82 -75 -70 -63 0
-144 -84 -83 -72 -71 -63 0
-145 -85 -83 -73 -71 -63 0
-146 -86 -83 -74 -71 -63 0
-147 -87 -83 -75 -71 -63 0
-148 -85 -84 -73 -72 -63 0
-149 -86 -84 -74 -72 -63 0
-150 -87 -84 -75 -72 -63 0
-151 -86 -85 -74 -73 -63 0
-152 -87 -85 -75 -73 -63 0
-153 -87 -86 -75 -74 -63 0
-99 -89 -88 -66 -65 -64 0
-100 -90 -88 -67 -65 -64 0
-101 -91 -88 -68 -65 -64 0
-102 -92 -88 -69 -65 -64 0
-103 -93 -88 -70 -65 -64 0
-104 -94 -88 -71 -65 -64 0
-105 -95 -88 -72 -65 -64 0
-106 -96 -88 -73 -65 -64 0
-107 -97 -88 -74 -65 -64 0
-108 -98 -88 -75 -65 -64 0
-109 -90 -89 -67 -66 -64 0
-110 -91 -89 -68 -66 -64 0
-111 -92 -89 -69 -66 -64 0
-112 -93 -89 -70 -66 -64 0
-113 -94 -89 -71 -66 -64 0
-114 -95 -89 -72 -66 -64 0
-115 -96 -89 -73 -66 -64 0
-116 -97 -89 -74 -66 -64 0
-117 -98 -89 -75 -66 -64 0
-118 -91 -90 -68 -67 -64 0
-119 -92 -90 -69 -67 -64 0
-120 -93 -90 -70 -67 -64 0
-121 -94 -90 -71 -67 -64 0
-122 -95 -90 -72 -67 -64 0
-123 -96 -90 -73 -67 -64 0
-124 -97 -90 -74 -67 -64 0
-125 -98 -90 -75 -67 -64 0
-126 -92 -91 -69 -68 -64 0
-127 -93 -91 -70 -68 -64 0
-128 -94 -91 -71 -68 -64 0
-129 -95 -91 -72 -68 -64 0
-130 -96 -91 -73 -68 -64 0
-131 -97 -91 -74 -68 -64 0
-132 -98 -91 -75 -68 -64 0
-133 -93 -92 -70 -69 -64 0
-134 -94 -92 -71 -69 -64 0
-135 -95 -92 -72 -69 -64 0
-136 -96 -92 -73 -69 -64 0
-137 -97 -92 -74 -69 -64 0
-138 -98 -92 -75 -69 -64 0
-139 -94 -93 -71 -70 -64 0
-140 -95 -93 -72 -70 -64 0
-141 -96 -93 -73 -70 -64 0
-142 -97 -93 -74 -70 -64 0
-143 -98 -93 -75 -70 -64 0
-144 -95 -94 -72 -71 -64 0
-145 -96 -94 -73 -71 -64 0
-146 -97 -94 -74 -71 -64 0
-147 -98 -94 -75 -71 -64 0
-148 -96 -95 -73 -72 -64 0
-149 -97 -95 -74 -72 -64 0
-150 -98 -95 -75 -72 -64 0
-151 -97 -96 -74 -73 -64 0
-152 -98 -96 -75 -73 -64 0
-153 -98 -97 -75 -74 -64 0
-109 -100 -99 -67 -66 -65 0
-110 -101 -99 -68 -66 -65 0
-111 -102 -99 -69 -66 -65 0
-112 -103 -99 -70 -66 -65 0
-113 -104 -99 -71 -66 -65 0
-114 -105 -99 -72 -66 -65 0
-115 -106 -99 -73 -66 -65 0
-116 -107 -99 -74 -66 -65 0
-117 -108 -99 -75 -66 -65 0
-118 -101 -100 -68 -67 -65 0
-119 -102 -100 -69 -67 -65 0
-120 -103 -100 -70 -67 -65 0
-121 -104 -100 -71 -67 -65 0
-122 -105 -100 -72 -67 -65 0
-123 -106 -100 -73 -67 -65 0
-124 -107 -100 -74 -67 -65 0
-125 -108 -100 -75 -67 -65 0
-126 -102 -101 -69 -68 -65 0
-127 -103 -101 -70 -68 -65 0
-128 -104 -101 -71 -68 -65 0
-129 -105 -101 -72 -68 -65 0
-130 -106 -101 -73 -68 -65 0
-131 -107 -101 -74 -68 -65 0
-132 -108 -101 -75 -68 -65 0
-133 -103 -102 -70 -69 -65 0
-134 -104 -102 -71 -69 -65 0
-135 -105 -102 -72 -69 -65 0
-136 -106 -102 -73 -69 -65 0
-137 -107 -102 -74 -69 -65 0
-138 -108 -102 -75 -69 -65 0
-139 -104 -103 -71 -70 -65 0
-140 -105 -103 -72 -70 -65 0
-141 -106 -103 -73 -70 -65 0
-142 -107 -103 -74 -70 -65 0
-143 -108 -103 -75 -70 -65 0
-144 -105 -104 -72 -71 -65 0
-145 -106 -104 -73 -71 -65 0
-146 -107 -104 -74 -71 -65 0
-147 -108 -104 -75 -71 -65 0
-148 -106 -105 -73 -72 -65 0
-149 -107 -105 -74 -72 -65 0
-150 -108 -105 -75 -72 -65 0
-151 -107 -106 -74 -73 -65 0
-152 -108 -106 -75 -73 -65 0
-153 -108 -107 -75 -74 -65 0
-118 -110 -109 -68 -67 -66 0
-119 -111 -109 -69 -67 -66 0
-120 -112 -109 -70 -67 -66 0
-121 -113 -109 -71 -67 -66 0
-122 -114 -109 -72 -67 -66 0
-123 -115 -109 -73 -67 -66 0
-124 -116 -109 -74 -67 -66 0
-125 -117 -109 -75 -67 -66 0
-126 -111 -110 -69 -68 -66 0
-127 -112 -110 -70 -68 -66 0
-128 -113 -110 -71 -68 -66 0
-129 -114 -110 -72 -68 -66 0
-130 -115 -110 -73 -68 -66 0
-131 -116 -110 -74 -68 -66 0
-132 -117 -110 -75 -68 -66 0
-133 -112 -111 -70 -69 -66 0
-134 -113 -111 -71 -69 -66 0
-135 -114 -111 -72 -69 -66 0
-136 -115 -111 -73 -69 -66 0
-137 -116 -111 -74 -69 -66 0
-138 -117 -111 -75 -69 -66 0
-139 -113 -112 -71 -70 -66 0
-140 -114 -112 -72 -70 -66 0
-141 -115 -112 -73 -70 -66 0
-142 -116 -112 -74 -70 -66 0
-143 -117 -112 -75 -70 -66 0
-144 -114 -113 -72 -71 -66 0
-145 -115 -113 -73 -71 -66 0
-146 -116 -113 -74 -71 -66 0
-147 -117 -113 -75 -71 -66 0
-148 -115 -114 -73 -72 -66 0
-149 -116 -114 -74 -72 -66 0
-150 -117 -114 -75 -72 -66 0
-151 -116 -115 -74 -73 -66 0
-152 -117 -115 -75 -73 -66 0
-153 -117 -116 -75 -74 -66 0
-126 -119 -118 -69 -68 -67 0
-127 -120 -118 -70 -68 -67 0
-128 -121 -118 -71 -68 -67 0
-129 -122 -118 -72 -68 -67 0
-130 -123 -118 -73 -68 -67 0
-131 -124 -118 -74 -68 -67 0
-132 -125 -118 -75 -68 -67 0
-133 -120 -119 -70 -69 -67 0
-134 -121 -119 -71 -69 -67 0
-135 -122 -119 -72 -69 -67 0
-136 -123 -119 -73 -69 -67 0
-137 -124 -119 -74 -69 -67 0
-138 -125 -119 -75 -69 -67 0
-139 -121 -120 -71 -70 -67 0
-140 -122 -120 -72 -70 -67 0
-141 -123 -120 -73 -70 -67 0
-142 -124 -120 -74 -70 -67 0
-143 -125 -120 -75 -70 -67 0
-144 -122 -121 -72 -71 -67 0
-145 -123 -121 -73 -71 -67 0
-146 -124 -121 -74 -71 -67 0
-147 -125 -121 -75 -71 -67 0
-148 -123 -122 -73 -72 -67 0
-149 -124 -122 -74 -72 -67 0
-150 -125 -122 -75 -72 -67 0
-151 -124 -123 -74 -73 -67 0
-152 -125 -123 -75 -73 -67 0
-153 -125 -124 -75 -74 -67 0
-133 -127 -126 -70 -69 -68 0
-134 -128 -126 -71 -69 -68 0
-135 -129 -126 -72 -69 -68 0
-136 -130 -126 -73 -69 -68 0
-137 -131 -126 -74 -69 -68 0
-138 -132 -126 -75 -69 -68 0
-139 -128 -127 -71 -70 -68 0
-140 -129 -127 -72 -70 -68 0
-141 -130 -127 -73 -70 -68 0
-142 -131 -127 -74 -70 -68 0
-143 -132 -127 -75 -70 -68 0
-144 -129 -128 -72 -71 -68 0
-145 -130 -128 -73 -71 -68 0
-146 -131 -128 -74 -71 -68 0
-147 -132 -128 -75 -71 -68 0
-148 -130 -129 -73 -72 -68 0
-149 -131 -129 -74 -72 -68 0
-150 -132 -129 -75 -72 -68 0
-151 -131 -130 -74 -73 -68 0
-152 -132 -130 -75 -73 -68 0
-153 -132 -131 -75 -74 -68 0
-139 -134 -133 -71 -70 -69 0
-140 -135 -133 -72 -70 -69 0
-141 -136 -133 -73 -70 -69 0
-142 -137 -133 -74 -70 -69 0
-143 -138 -133 -75 -70 -69 0
-144 -135 -134 -72 -71 -69 0
-145 -136 -134 -73 -71 -69 0
-146 -137 -134 -74 -71 -69 0
-147 -138 -134 -75 -71 -69 0
-148 -136 -135 -73 -72 -69 0
-149 -137 -135 -74 -72 -69 0
-150 -138 -135 -75 -72 -69 0
-151 -137 -136 -74 -73 -69 0
-152 -138 -136 -75 -73 -69 0
-153 -138 -137 -75 -74 -69 0
-144 -140 -139 -72 -71 -70 0
-145 -141 -139 -73 -71 -70 0
-146 -142 -139 -74 -71 -70 0
-147 -143 -139 -75 -71 -70 0
-148 -141 -140 -73 -72 -70 0
-149 -142 -140 -74 -72 -70 0
-150 -143 -140 -75 -72 -70 0
-151 -142 -141 -74 -73 -70 0
-152 -143 -141 -75 -73 -70 0
-153 -143 -142 -75 -74 -70 0
-148 -145 -144 -73 -72 -71 0
-149 -146 -144 -74 -72 -71 0
-150 -147 -144 -75 -72 -71 0
-151 -146 -145 -74 -73 -71 0
-152 -147 -145 -75 -73 -71 0
-153 -147 -146 -75 -74 -71 0
-151 -149 -148 -74 -73 -72 0
-152 -150 -148 -75 -73 -72 0
-153 -150 -149 -75 -74 -72 0
-153 -152 -151 -75 -74 -73 0
-99 -89 -88 -78 -77 -76 0
-100 -90 -88 -79 -77 -76 0
-101 -91 -88 -80 -77 -76 0
-102 -92 -88 -81 -77 -76 0
-103 -93 -88 -82 -77 -76 0
-104 -94 -88 -83 -77 -76 0
-105 -95 -88 -84 -77 -76 0
-106 -96 -88 -85 -77 -76 0
-107 -97 -88 -86 -77 -76 0
-108 -98 -88 -87 -77 -76 0
-109 -90 -89 -79 -78 -76 0
-110 -91 -89 -80 -78 -76 0
-111 -92 -89 -81 -78 -76 0
-112 -93 -89 -82 -78 -76 0
-113 -94 -89 -83 -78 -76 0
-114 -95 -89 -84 -78 -76 0
-115 -96 -89 -85 -78 -76 0
-116 -97 -89 -86 -78 -76 0
-117 -98 -89 -87 -78 -76 0
-118 -91 -90 -80 -79 -76 0
-119 -92 -90 -81 -79 -76 0
-120 -93 -90 -82 -79 -76 0
-121 -94 -90 -83 -79 -76 0
-122 -95 -90 -84 -79 -76 0
-123 -96 -90 -85 -79 -76 0
-124 -97 -90 -86 -79 -76 0
-125 -98 -90 -87 -79 -76 0
-126 -92 -91 -81 -80 -76 0
-127 -93 -91 -82 -80 -76 0
-128 -94 -91 -83 -80 -76 0
-129 -95 -91 -84 -80 -76 0
-130 -96 -91 -85 -80 -76 0
-131 -97 -91 -86 -80 -76 0
-132 -98 -91 -87 -80 -76 0
-133 -93 -92 -82 -81 -76 0
-134 -94 -92 -83 -81 -76 0
-135 -95 -92 -84 -81 -76 0
-136 -96 -92 -85 -81 -76 0
-137 -97 -92 -86 -81 -76 0
-138 -98 -92 -87 -81 -76 0
-139 -94 -93 -83 -82 -76 0
-140 -95 -93 -84 -82 -76 0
-141 -96 -93 -85 -82 -76 0
-142 -97 -93 -86 -82 -76 0
-143 -98 -93 -87 -82 -76 0
-144 -95 -94 -84 -83 -76 0
-145 -96 -94 -85 -83 -76 0
-146 -97 -94 -86 -83 -76 0
-147 -98 -94 -87 -83 -76 0
-148 -96 -95 -85 -84 -76 0
-149 -97 -95 -86 -84 -76 0
-150 -98 -95 -87 -84 -76 0
-151 -97 -96 -86 -85 -76 0
-152 -98 -96 -87 -85 -76 0
-153 -98 -97 -87 -86 -76 0
-109 -100 -99 -79 -78 -77 0
-110 -101 -99 -80 -78 -77 0
-111 -102 -99 -81 -78 -77 0
-112 -103 -99 -82 -78 -77 0
-113 -104 -99 -83 -78 -77 0
-114 -105 -99 -84 -78 -77 0
-115 -106 -99 -85 -78 -77 0
-116 -107 -99 -86 -78 -77 0
-117 -108 -99 -87 -78 -77 0
-118 -101 -100 -80 -79 -77 0
-119 -102 -100 -81 -79 -77 0
-120 -103 -100 -82 -79 -77 0
-121 -104 -100 -83 -79 -77 0
-122 -105 -100 -84 -79 -77 0
-123 -106 -100 -85 -79 -77 0
-124 -107 -100 -86 -79 -77 0
-125 -108 -100 -87 -79 -77 0
-126 -102 -101 -81 -80 -77 0
-127 -103 -101 -82 -80 -77 0
-128 -104 -101 -83 -80 -77 0
-129 -105 -101 -84 -80 -77 0
-130 -106 -101 -85 -80 -77 0
-131 -107 -101 -86 -80 -77 0
-132 -108 -101 -87 -80 -77 0
-133 -103 -102 -82 -81 -77 0
-134 -104 -102 -83 -81 -77 0
-135 -105 -102 -84 -81 -77 0
-136 -106 -102 -85 -81 -77 0
-137 -107 -102 -86 -81 -77 0
-138 -108 -102 -87 -81 -77 0
-139 -104 -103 -83 -82 -77 0
-140 -105 -103 -84 -82 -77 0
-141 -106 -103 -85 -82 -77 0
-142 -107 -103 -86 -82 -77 0
-143 -108 -103 -87 -82 -77 0
-144 -105 -104 -84 -83 -77 0
-145 -106 -104 -85 -83 -77 0
-146 -107 -104 -86 -83 -77 0
-147 -108 -104 -87 -83 -77 0
-148 -106 -105 -85 -84 -77 0
-149 -107 -105 -86 -84 -77 0
-150 -108 -105 -87 -84 -77 0
-151 -107 -106 -86 -85 -77 0
-152 -108 -106 -87 -85 -77 0
-153 -108 -107 -87 -86 -77 0
-118 -110 -109 -80 -79 -78 0
-119 -111 -109 -81 -79 -78 0
-120 -112 -109 -82 -79 -78 0
-121 -113 -109 -83 -79 -78 0
-122 -114 -109 -84 -79 -78 0
-123 -115 -109 -85 -79 -78 0
-124 -116 -109 -86 -79 -78 0
-125 -117 -109 -87 -79 -78 0
-126 -111 -110 -81 -80 -78 0
-127 -112 -110 -82 -80 -78 0
-128 -113 -110 -83 -80 -78 0
-129 -114 -110 -84 -80 -78 0
-130 -115 -110 -85 -80 -78 0
-131 -116 -110 -86 -80 -78 0
-132 -117 -110 -87 -80 -78 0
-133 -112 -111 -82 -81 -78 0
-134 -113 -111 -83 -81 -78 0
-135 -114 -111 -84 -81 -78 0
-136 -115 -111 -85 -81 -78 0
-137 -116 -111 -86 -81 -78 0
-138 -117 -111 -87 -81 -78 0
-139 -113 -112 -83 -82 -78 0
-140 -114 -112 -84 -82 -78 0
-141 -115 -112 -85 -82 -78 0
-142 -116 -112 -86 -82 -78 0
-143 -117 -112 -87 -82 -78 0
-144 -114 -113 -84 -83 -78 0
-145 -115 -113 -85 -83 -78 0
-146 -116 -113 -86 -83 -78 0
-147 -117 -113 -87 -83 -78 0
-148 -115 -114 -85 -84 -78 0
-149 -116 -114 -86 -84 -78 0
-150 -117 -114 -87 -84 -78 0
-151 -116 -115 -86 -85 -78 0
-152 -117 -115 -87 -85 -78 0
-153 -117 -116 -87 -86 -78 0
-126 -119 -118 -81 -80 -79 0
-127 -120 -118 -82 -80 -79 0
-128 -121 -118 -83 -80 -79 0
-129 -122 -118 -84 -80 -79 0
-130 -123 -118 -85 -80 -79 0
-131 -124 -118 -86 -80 -79 0
-132 -125 -118 -87 -80 -79 0
-133 -120 -119 -82 -81 -79 0
-134 -121 -119 -83 -81 -79 0
-135 -122 -119 -84 -81 -79 0
-136 -123 -119 -85 -81 -79 0
-137 -124 -119 -86 -81 -79 0
-138 -125 -119 -87 -81 -79 0
-139 -121 -120 -83 -82 -79 0
-140 -122 -120 -84 -82 -79 0
-141 -123 -120 -85 -82 -79 0
-142 -124 -120 -86 -82 -79 0
-143 -125 -120 -87 -82 -79 0
-144 -122 -121 -84 -83 -79 0
-145 -123 -121 -85 -83 -79 0
-146 -124 -121 -86 -83 -79 0
-147 -125 -121 -87 -83 -79 0
-148 -123 -122 -85 -84 -79 0
-149 -124 -122 -86 -84 -79 0
-150 -125 -122 -87 -84 -79 0
-151 -124 -123 -86 -85 -79 0
-152 -125 -123 -87 -85 -79 0
-153 -125 -124 -87 -86 -79 0
-133 -127 -126 -82 -81 -80 0
-134 -128 -126 -83 -81 -80 0
-135 -129 -126 -84 -81 -80 0
-136 -130 -126 -85 -81 -80 0
-137 -131 -126 -86 -81 -80 0
-138 -132 -126 -87 -81 -80 0
-139 -128 -127 -83 -82 -80 0
-140 -129 -127 -84 -82 -80 0
-141 -130 -127 -85 -82 -80 0
-142 -131 -127 -86 -82 -80 0
-143 -132 -127 -87 -82 -80 0
-144 -129 -128 -84 -83 -80 0
-145 -130 -128 -85 -83 -80 0
-146 -131 -128 -86 -83 -80 0
-147 -132 -128 -87 -83 -80 0
-148 -130 -129 -85 -84 -80 0
-149 -131 -129 -86 -84 -80 0
-150 -132 -129 -87 -84 -80 0
-151 -131 -130 -86 -85 -80 0
-152 -132 -130 -87 -85 -80 0
-153 -132 -131 -87 -86 -80 0
-139 -134 -133 -83 -82 -81 0
-140 -135 -133 -84 -82 -81 0
-141 -136 -133 -85 -82 -81 0
-142 -137 -133 -86 -82 -81 0
-143 -138 -133 -87 -82 -81 0
-144 -135 -134 -84 -83 -81 0
-145 -136 -134 -85 -83 -81 0
-146 -137 -134 -86 -83 -81 0
-147 -138 -134 -87 -83 -81 0
-148 -136 -135 -85 -84 -81 0
-149 -137 -135 -86 -84 -81 0
-150 -138 -135 -87 -84 -81 0
-151 -137 -136 -86 -85 -81 0
-152 -138 -136 -87 -85 -81 0
-153 -138 -137 -87 -86 -81 0
-144 -140 -139 -84 -83 -82 0
-145 -141 -139 -85 -83 -82 0
-146 -142 -139 -86 -83 -82 0
-147 -143 -139 -87 -83 -82 0
-148 -141 -140 -85 -84 -82 0
-149 -142 -140 -86 -84 -82 0
-150 -143 -140 -87 -84 -82 0
-151 -142 -141 -86 -85 -82 0
-152 -143 -141 -87 -85 -82 0
-153 -143 -142 -87 -86 -82 0
-148 -145 -144 -85 -84 -83 0
-149 -146 -144 -86 -84 -83 0
-150 -147 -144 -87 -84 -83 0
-151 -146 -145 -86 -85 -83 0
-152 -147 -145 -87 -85 -83 0
-153 -147 -146 -87 -86 -83 0
-151 -149 -148 -86 -85 -84 0
-152 -150 -148 -87 -85 -84 0
-153 -150 -149 -87 -86 -84 0
-153 -152 -151 -87 -86 -85 0
-109 -100 -99 -90 -89 -88 0
-110 -101 -99 -91 -89 -88 0
-111 -102 -99 -92 -89 -88 0
-112 -103 -99 -93 -89 -88 0
-113 -104 -99 -94 -89 -88 0
-114 -105 -99 -95 -89 -88 0
-115 -106 -99 -96 -89 -88 0
-116 -107 -99 -97 -89 -88 0
-117 -108 -99 -98 -89 -88 0
-118 -101 -100 -91 -90 -88 0
-119 -102 -100 -92 -90 -88 0
-120 -103 -100 -93 -90 -88 0
-121 -104 -100 -94 -90 -88 0
-122 -105 -100 -95 -90 -88 0
-123 -106 -100 -96 -90 -88 0
-124 -107 -100 -97 -90 -88 0
-125 -108 -100 -98 -90 -88 0
-126 -102 -101 -92 -91 -88 0
-127 -103 -101 -93 -91 -88 0
-128 -104 -101 -94 -91 -88 0
-129 -105 -101 -95 -91 -88 0
-130 -106 -101 -96 -91 -88 0
-131 -107 -101 -97 -91 -88 0
-132 -108 -101 -98 -91 -88 0
-133 -103 -102 -93 -92 -88 0
-134 -104 -102 -94 -92 -88 0
-135 -105 -102 -95 -92 -88 0
-136 -106 -102 -96 -92 -88 0
-137 -107 -102 -97 -92 -88 0
-138 -108 -102 -98 -92 -88 0
-139 -104 -103 -94 -93 -88 0
-140 -105 -103 -95 -93 -88 0
-141 -106 -103 -96 -93 -88 0
-142 -107 -103 -97 -93 -88 0
-143 -108 -103 -98 -93 -88 0
-144 -105 -104 -95 -94 -88 0
-145 -106 -104 -96 -94 -88 0
-146 -107 -104 -97 -94 -88 0
-147 -108 -104 -98 -94 -88 0
-148 -106 -105 -96 -95 -88 0
-149 -107 -105 -97 -95 -88 0
-150 -108 -105 -98 -95 -88 0
-151 -107 -106 -97 -96 -88 0
-152 -108 -106 -98 -96 -88 0
-153 -108 -107 -98 -97 -88 0
-118 -110 -109 -91 -90 -89 0
-119 -111 -109 -92 -90 -89 0
-120 -112 -109 -93 -90 -89 0
-121 -113 -109 -94 -90 -89 0
-122 -114 -109 -95 -90 -89 0
-123 -115 -109 -96 -90 -89 0
-124 -116 -109 -97 -90 -89 0
-125 -117 -109 -98 -90 -89 0
-126 -111 -110 -92 -91 -89 0
-127 -112 -110 -93 -91 -89 0
-128 -113 -110 -94 -91 -89 0
-129 -114 -110 -95 -91 -89 0
-130 -115 -110 -96 -91 -89 0
-131 -116 -110 -97 -91 -89 0
-132 -117 -110 -98 -91 -89 0
-133 -112 -111 -93 -92 -89 0
-134 -113 -111 -94 -92 -89 0
-135 -114 -111 -95 -92 -89 0
-136 -115 -111 -96 -92 -89 0
-137 -116 -111 -97 -92 -89 0
-138 -117 -111 -98 -92 -89 0
-139 -113 -112 -94 -93 -89 0
-140 -114 -112 -95 -93 -89 0
-141 -115 -112 -96 -93 -89 0
-142 -116 -112 -97 -93 -89 0
-143 -117 -112 -98 -93 -89 0
-144 -114 -113 -95 -94 -89 0
-145 -115 -113 -96 -94 -89 0
-146 -116 -113 -97 -94 -89 0
-147 -117 -113 -98 -94 -89 0
-148 -115 -114 -96 -95 -89 0
-149 -116 -114 -97 -95 -89 0
-150 -117 -114 -98 -95 -89 0
-151 -116 -115 -97 -96 -89 0
-152 -117 -115 -98 -96 -89 0
-153 -117 -116 -98 -97 -89 0
-126 -119 -118 -92 -91 -90 0
-127 -120 -118 -93 -91 -90 0
-128 -121 -118 -94 -91 -90 0
-129 -122 -118 -95 -91 -90 0
-130 -123 -118 -96 -91 -90 0
-131 -124 -118 -97 -91 -90 0
-132 -125 -118 -98 -91 -90 0
-133 -120 -119 -93 -92 -90 0
-134 -121 -119 -94 -92 -90 0
-135 -122 -119 -95 -92 -90 0
-136 -123 -119 -96 -92 -90 0
-137 -124 -119 -97 -92 -90 0
-138 -125 -119 -98 -92 -90 0
-139 -121 -120 -94 -93 -90 0
-140 -122 -120 -95 -93 -90 0
-141 -123 -120 -96 -93 -90 0
-142 -124 -120 -97 -93 -90 0
-143 -125 -120 -98 -93 -90 0
-144 -122 -121 -95 -94 -90 0
-145 -123 -121 -96 -94 -90 0
-146 -124 -121 -97 -94 -90 0
-147 -125 -121 -98 -94 -90 0
-148 -123 -122 -96 -95 -90 0
-149 -124 -122 -97 -95 -90 0
-150 -125 -122 -98 -95 -90 0
-151 -124 -123 -97 -96 -90 0
-152 -125 -123 -98 -96 -90 0
-153 -125 -124 -98 -97 -90 0
-133 -127 -126 -93 -92 -91 0
-134 -128 -126 -94 -92 -91 0
-135 -129 -126 -95 -92 -91 0
-136 -130 -126 -96 -92 -91 0
-137 -131 -126 -97 -92 -91 0
-138 -132 -126 -98 -92 -91 0
-139 -128 -127 -94 -93 -91 0
-140 -129 -127 -95 -93 -91 0
-141 -130 -127 -96 -93 -91 0
-142 -131 -127 -97 -93 -91 0
-143 -132 -127 -98 -93 -91 0
-144 -129 -128 -95 -94 -91 0
-145 -130 -128 -96 -94 -91 0
-146 -131 -128 -97 -94 -91 0
-147 -132 -128 -98 -94 -91 0
-148 -130 -129 -96 -95 -91 0
-149 -131 -129 -97 -95 -91 0
-150 -132 -129 -98 -95 -91 0
-151 -131 -130 -97 -96 -91 0
-152 -132 -130 -98 -96 -91 0
-153 -132 -131 -98 -97 -91 0
-139 -134 -133 -94 -93 -92 0
-140 -135 -133 -95 -93 -92 0
-141 -136 -133 -96 -93 -92 0
-142 -137 -133 -97 -93 -92 0
-143 -138 -133 -98 -93 -92 0
-144 -135 -134 -95 -94 -92 0
-145 -136 -134 -96 -94 -92 0
-146 -137 -134 -97 -94 -92 0
-147 -138 -134 -98 -94 -92 0
-148 -136 -135 -96 -95 -92 0
-149 -137 -135 -97 -95 -92 0
-150 -138 -135 -98 -95 -92 0
-151 -137 -136 -97 -96 -92 0
-152 -138 -136 -98 -96 -92 0
-153 -138 -137 -98 -97 -92 0
-144 -140 -139 -95 -94 -93 0
-145 -141 -139 -96 -94 -93 0
-146 -142 -139 -97 -94 -93 0
-147 -143 -139 -98 -94 -93 0
-148 -141 -140 -96 -95 -93 0
-149 -142 -140 -97 -95 -93 0
-150 -143 -140 -98 -95 -93 0
-151 -142 -141 -97 -96 -93 0
-152 -143 -141 -98 -96 -93 0
-153 -143 -142 -98 -97 -93 0
-148 -145 -144 -96 -95 -94 0
-149 -146 -144 -97 -95 -94 0
-150 -147 -144 -98 -95 -94 0
-151 -146 -145 -97 -96 -94 0
-152 -147 -145 -98 -96 -94 0
-153 -147 -146 -98 -97 -94 0
-151 -149 -148 -97 -96 -95 0
-152 -150 -148 -98 -96 -95 0
-153 -150 -149 -98 -97 -95 0
-153 -152 -151 -98 -97 -96 0
-118 -110 -109 -101 -100 -99 0
-119 -111 -109 -102 -100 -99 0
-120 -112 -109 -103 -100 -99 0
-121 -113 -109 -104 -100 -99 0
-122 -114 -109 -105 -100 -99 0
-123 -115 -109 -106 -100 -99 0
-124 -116 -109 -107 -100 -99 0
-125 -117 -109 -108 -100 -99 0
-126 -111 -110 -102 -101 -99 0
-127 -112 -110 -103 -101 -99 0
-128 -113 -110 -104 -101 -99 0
-129 -114 -110 -105 -101 -99 0
-130 -115 -110 -106 -101 -99 0
-131 -116 -110 -107 -101 -99 0
-132 -117 -110 -108 -101 -99 0
-133 -112 -111 -103 -102 -99 0
-134 -113 -111 -104 -102 -99 0
-135 -114 -111 -105 -102 -99 0
-136 -115 -111 -106 -102 -99 0
-137 -116 -111 -107 -102 -99 0
-138 -117 -111 -108 -102 -99 0
-139 -113 -112 -104 -103 -99 0
-140 -114 -112 -105 -103 -99 0
-141 -115 -112 -106 -103 -99 0
-142 -116 -112 -107 -103 -99 0
-143 -117 -112 -108 -103 -99 0
-144 -114 -113 -105 -104 -99 0
-145 -115 -113 -106 -104 -99 0
-146 -116 -113 -107 -104 -99 0
-147 -117 -113 -108 -104 -99 0
-148 -115 -114 -106 -105 -99 0
-149 -116 -114 -107 -105 -99 0
-150 -117 -114 -108 -105 -99 0
-151 -116 -115 -107 -106 -99 0
-152 -117 -115 -108 -106 -99 0
-153 -117 -116 -108 -107 -99 0
-126 -119 -118 -102 -101 -100 0
-127 -120 -118 -103 -101 -100 0
-128 -121 -118 -104 -101 -100 0
-129 -122 -118 -105 -101 -100 0
-130 -123 -118 -106 -101 -100 0
-131 -124 -118 -107 -101 -100 0
-132 -125 -118 -108 -101 -100 0
-133 -120 -119 -103 -102 -100 0
-134 -121 -119 -104 -102 -100 0
-135 -122 -119 -105 -102 -100 0
-136 -123 -119 -106 -102 -100 0
-137 -124 -119 -107 -102 -100 0
-138 -125 -119 -108 -102 -100 0
-139 -121 -120 -104 -103 -100 0
-140 -122 -120 -105 -103 -100 0
-141 -123 -120 -106 -103 -100 0
-142 -124 -120 -107 -103 -100 0
-143 -125 -120 -108 -103 -100 0
-144 -122 -121 -105 -104 -100 0
-145 -123 -121 -106 -104 -100 0
-146 -124 -121 -107 -104 -100 0
-147 -125 -121 -108 -104 -100 0
-148 -123 -122 -106 -105 -100 0
-149 -124 -122 -107 -105 -100 0
-150 -125 -122 -108 -105 -100 0
-151 -124 -123 -107 -106 -100 0
-152 -125 -123 -108 -106 -100 0
-153 -125 -124 -108 -107 -100 0
-133 -127 -126 -103 -102 -101 0
-134 -128 -126 -104 -102 -101 0
-135 -129 -126 -105 -102 -101 0
-136 -130 -126 -106 -102 -101 0
-137 -131 -126 -107 -102 -101 0
-138 -132 -126 -108 -102 -101 0
-139 -128 -127 -104 -103 -101 0
-140 -129 -127 -105 -103 -101 0
-141 -130 -127 -106 -103 -101 0
-142 -131 -127 -107 -103 -101 0
-143 -132 -127 -108 -103 -101 0
-144 -129 -128 -105 -104 -101 0
-145 -130 -128 -106 -104 -101 0
-146 -131 -128 -107 -104 -101 0
-147 -132 -128 -108 -104 -101 0
-148 -130 -129 -106 -105 -101 0
-149 -131 -129 -107 -105 -101 0
-150 -132 -129 -108 -105 -101 0
-151 -131 -130 -107 -106 -101 0
-152 -132 -130 -108 -106 -101 0
-153 -132 -131 -108 -107 -101 0
-139 -134 -133 -104 -103 -102 0
-140 -135 -133 -105 -103 -102 0
-141 -136 -133 -106 -103 -102 0
-142 -137 -133 -107 -103 -102 0
-143 -138 -133 -108 -103 -102 0
-144 -135 -134 -105 -104 -102 0
-145 -136 -134 -106 -104 -102 0
-146 -137 -134 -107 -104 -102 0
-147 -138 -134 -108 -104 -102 0
-148 -136 -135 -106 -105 -102 0
-149 -137 -135 -107 -105 -102 0
-150 -138 -135 -108 -105 -102 0
-151 -137 -136 -107 -106 -102 0
-152 -138 -136 -108 -106 -102 0
-153 -138 -137 -108 -107 -102 0
-144 -140 -139 -105 -104 -103 0
-145 -141 -139 -106 -104 -103 0
-146 -142 -139 -107 -104 -103 0
-147 -143 -139 -108 -104 -103 0
-148 -141 -140 -106 -105 -103 0
-149 -142 -140 -107 -105 -103 0
-150 -143 -140 -108 -105 -103 0
-151 -142 -141 -107 -106 -103 0
-152 -143 -141 -108 -106 -103 0
-153 -143 -142 -108 -107 -103 0
-148 -145 -144 -106 -105 -104 0
-149 -146 -144 -107 -105 -104 0
-150 -147 -144 -108 -105 -104 0
-151 -146 -145 -107 -106 -104 0
-152 -147 -145 -108 -106 -104 0
-153 -147 -146 -108 -107 -104 0
-151 -149 -148 -107 -106 -105 0
-152 -150 -148 -108 -106 -105 0
-153 -150 -149 -108 -107 -105 0
-153 -152 -151 -108 -107 -106 0
-126 -119 -118 -111 -110 -109 0
-127 -120 -118 -112 -110 -109 0
-128 -121 -118 -113 -110 -109 0
-129 -122 -118 -114 -110 -109 0
-130 -123 -118 -115 -110 -109 0
-131 -124 -118 -116 -110 -109 0
-132 -125 -118 -117 -110 -109 0
-133 -120 -119 -112 -111 -109 0
-134 -121 -119 -113 -111 -109 0
-135 -122 -119 -114 -111 -109 0
-136 -123 -119 -115 -111 -109 0
-137 -124 -119 -116 -111 -109 0
-138 -125 -119 -117 -111 -109 0
-139 -121 -120 -113 -112 -109 0
-140 -122 -120 -114 -112 -109 0
-141 -123 -120 -115 -112 -109 0
-142 -124 -120 -116 -112 -109 0
-143 -125 -120 -117 -112 -109 0
-144 -122 -121 -114 -113 -109 0
-145 -123 -121 -115 -113 -109 0
-146 -124 -121 -116 -113 -109 0
-147 -125 -121 -117 -113 -109 0
-148 -123 -122 -115 -114 -109 0
-149 -124 -122 -116 -114 -109 0
-150 -125 -122 -117 -114 -109 0
-151 -124 -123 -116 -115 -109 0
-152 -125 -123 -117 -115 -109 0
-153 -125 -124 -117 -116 -109 0
-133 -127 -126 -112 -111 -110 0
-134 -128 -126 -113 -111 -110 0
-135 -129 -126 -114 -111 -110 0
-136 -130 -126 -115 -111 -110 0
-137 -131 -126 -116 -111 -110 0
-138 -132 -126 -117 -111 -110 0
-139 -128 -127 -113 -112 -110 0
-140 -129 -127 -114 -112 -110 0
-141 -130 -127 -115 -112 -110 0
-142 -131 -127 -116 -112 -110 0
-143 -132 -127 -117 -112 -110 0
-144 -129 -128 -114 -113 -110 0
-145 -130 -128 -115 -113 -110 0
-146 -131 -128 -116 -113 -110 0
-147 -132 -128 -117 -113 -110 0
-148 -130 -129 -115 -114 -110 0
-149 -131 -129 -116 -114 -110 0
-150 -132 -129 -117 -114 -110 0
-151 -131 -130 -116 -115 -110 0
-152 -132 -130 -117 -115 -110 0
-153 -132 -131 -117 -116 -110 0
-139 -134 -133 -113 -112 -111 0
-140 -135 -133 -114 -112 -111 0
-141 -136 -133 -115 -112 -111 0
-142 -137 -133 -116 -112 -111 0
-143 -138 -133 -117 -112 -111 0
-144 -135 -134 -114 -113 -111 0
-145 -136 -134 -115 -113 -111 0
-146 -137 -134 -116 -113 -111 0
-147 -138 -134 -117 -113 -111 0
-148 -136 -135 -115 -114 -111 0
-149 -137 -135 -116 -114 -111 0
-150 -138 -135 -117 -114 -111 0
-151 -137 -136 -116 -115 -111 0
-152 -138 -136 -117 -115 -111 0
-153 -138 -137 -117 -116 -111 0
-144 -140 -139 -114 -113 -112 0
-145 -141 -139 -115 -113 -112 0
-146 -142 -139 -116 -113 -112 0
-147 -143 -139 -117 -113 -112 0
-148 -141 -140 -115 -114 -112 0
-149 -142 -140 -116 -114 -112 0
-150 -143 -140 -117 -114 -112 0
-151 -142 -141 -116 -115 -112 0
-152 -143 -141 -117 -115 -112 0
-153 -143 -142 -117 -116 -112 0
-148 -145 -144 -115 -114 -113 0
-149 -146 -144 -116 -114 -113 0
-150 -147 -144 -117 -114 -113 0
-151 -146 -145 -116 -115 -113 0
-152 -147 -145 -117 -115 -113 0
-153 -147 -146 -117 -116 -113 0
-151 -149 -148 -116 -115 -114 0
-152 -150 -148 -117 -115 -114 0
-153 -150 -149 -117 -116 -114 0
-153 -152 -151 -117 -116 -115 0
-133 -127 -126 -120 -119 -118 0
-134 -128 -126 -121 -119 -118 0
-135 -129 -126 -122 -119 -118 0
-136 -130 -126 -123 -119 -118 0
-137 -131 -126 -124 -119 -118 0
-138 -132 -126 -125 -119 -118 0
-139 -128 -127 -121 -120 -118 0
-140 -129 -127 -122 -120 -118 0
-141 -130 -127 -123 -120 -118 0
-142 -131 -127 -124 -120 -118 0
-143 -132 -127 -125 -120 -118 0
-144 -129 -128 -122 -121 -118 0
-145 -130 -128 -123 -121 -118 0
-146 -131 -128 -124 -121 -118 0
-147 -132 -128 -125 -121 -118 0
-148 -130 -129 -123 -122 -118 0
-149 -131 -129 -124 -122 -118 0
-150 -132 -129 -125 -122 -118 0
-151 -131 -130 -124 -123 -118 0
-152 -132 -130 -125 -123 -118 0
-153 -132 -131 -125 -124 -118 0
-139 -134 -133 -121 -120 -119 0
-140 -135 -133 -122 -120 -119 0
-141 -136 -133 -123 -120 -119 0
-142 -137 -133 -124 -120 -119 0
-143 -138 -133 -125 -120 -119 0
-144 -135 -134 -122 -121 -119 0
-145 -136 -134 -123 -121 -119 0
-146 -137 -134 -124 -121 -119 0
-147 -138 -134 -125 -121 -119 0
-148 -136 -135 -123 -122 -119 0
-149 -137 -135 -124 -122 -119 0
-150 -138 -135 -125 -122 -119 0
-151 -137 -136 -124 -123 -119 0
-152 -138 -136 -125 -123 -119 0
-153 -138 -137 -125 -124 -119 0
-144 -140 -139 -122 -121 -120 0
-145 -141 -139 -123 -121 -120 0
-146 -142 -139 -124 -121 -120 0
-147 -143 -139 -125 -121 -120 0
-148 -141 -140 -123 -122 -120 0
-149 -142 -140 -124 -122 -120 0
-150 -143 -140 -125 -122 -120 0
-151 -142 -141 -124 -123 -120 0
-152 -143 -141 -125 -123 -120 0
-153 -143 -142 -125 -124 -120 0
-148 -145 -144 -123 -122 -121 0
-149 -146 -144 -124 -122 -121 0
-150 -147 -144 -125 -122 -121 0
-151 -146 -145 -124 -123 -121 0
-152 -147 -145 -125 -123 -121 0
-153 -147 -146 -125 -124 -121 0
-151 -149 -148 -124 -123 -122 0
-152 -150 -148 -125 -123 -122 0
-153 -150 -149 -125 -124 -122 0
-153 -152 -151 -125 -124 -123 0
-139 -134 -133 -128 -127 -126 0
-140 -135 -133 -129 -127 -126 0
-141 -136 -133 -130 -127 -126 0
-142 -137 -133 -131 -127 -126 0
-143 -138 -133 -132 -127 -126 0
-144 -135 -134 -129 -128 -126 0
-145 -136 -134 -130 -128 -126 0
-146 -137 -134 -131 -128 -126 0
-147 -138 -134 -132 -128 -126 0
-148 -136 -135 -130 -129 -126 0
-149 -137 -135 -131 -129 -126 0
-150 -138 -135 -132 -129 -126 0
-151 -137 -136 -131 -130 -126 0
-152 -138 -136 -132 -130 -126 0
-153 -138 -137 -132 -131 -126 0
-144 -140 -139 -129 -128 -127 0
-145 -141 -139 -130 -128 -127 0
-146 -142 -139 -131 -128 -127 0
-147 -143 -139 -132 -128 -127 0
-148 -141 -140 -130 -129 -127 0
-149 -142 -140 -131 -129 -127 0
-150 -143 -140 -132 -129 -127 0
-151 -142 -141 -131 -130 -127 0
-152 -143 -141 -132 -130 -127 0
-153 -143 -142 -132 -131 -127 0
-148 -145 -144 -130 -129 -128 0
-149 -146 -144 -131 -129 -128 0
-150 -147 -144 -132 -129 -128 0
-151 -146 -145 -131 -130 -128 0
-152 -147 -145 -132 -130 -128 0
-153 -147 -146 -132 -131 -128 0
-151 -149 -148 -131 -130 -129 0
-152 -150 -148 -132 -130 -129 0
-153 -150 -149 -132 -131 -129 0
-153 -152 -151 -132 -131 -130 0
-144 -140 -139 -135 -134 -133 0
-145 -141 -139 -136 -134 -133 0
-146 -142 -139 -137 -134 -133 0
-147 -143 -139 -138 -134 -133 0
-148 -141 -140 -136 -135 -133 0
-149 -142 -140 -137 -135 -133 0
-150 -143 -140 -138 -135 -133 0
-151 -142 -141 -137 -136 -133 0
-152 -143 -141 -138 -136 -133 0
-153 -143 -142 -138 -137 -133 0
-148 -145 -144 -136 -135 -134 0
-149 -146 -144 -137 -135 -134 0
-150 -147 -144 -138 -135 -134 0
-151 -146 -145 -137 -136 -134 0
-152 -147 -145 -138 -136 -134 0
-153 -147 -146 -138 -137 -134 0
-151 -149 -148 -137 -136 -135 0
-152 -150 -148 -138 -136 -135 0
-153 -150 -149 -138 -137 -135 0
-153 -152 -151 -138 -137 -136 0
-148 -145 -144 -141 -140 -139 0
-149 -146 -144 -142 -140 -139 0
-150 -147 -144 -143 -140 -139 0
-151 -146 -145 -142 -141 -139 0
-152 -147 -145 -143 -141 -139 0
-153 -147 -146 -143 -142 -139 0
-151 -149 -148 -142 -141 -140 0
-152 -150 -148 -143 -141 -140 0
-153 -150 -149 -143 -142 -140 0
-153 -152 -151 -143 -142 -141 0
-151 -149 -148 -146 -145 -144 0
-152 -150 -148 -147 -145 -144 0
-153 -150 -149 -147 -146 -144 0
-153 -152 -151 -147 -146 -145 0
-153 -152 -151 -150 -149 -148 0
-154 -155 -156 -157 -158 -159 0
-160 -161 -156 -162 -158 -159 0
-163 -164 -156 -165 -158 -159 0
-166 -167 -156 -168 -158 -159 0
-169 -170 -156 -171 -158 -159 0
-172 -173 -156 -174 -158 -159 0
-175 -176 -156 -177 -158 -159 0
-178 -179 -156 -180 -158 -159 0
-181 -182 -156 -183 -158 -159 0
-184 -185 -156 -186 -158 -159 0
-187 -188 -156 -189 -158 -159 0
-190 -191 -156 -192 -158 -159 0
-193 -194 -156 -195 -158 -159 0
-196 -197 -156 -198 -158 -159 0
-199 -200 -156 -201 -158 -159 0
-202 -161 -155 -162 -157 -159 0
-203 -164 -155 -165 -157 -159 0
-204 -167 -155 -168 -157 -159 0
-205 -170 -155 -171 -157 -159 0
-206 -173 -155 -174 -157 -159 0
-207 -176 -155 -177 -157 -159 0
-208 -179 -155 -180 -157 -159 0
-209 -182 -155 -183 -157 -159 0
-210 -185 -155 -186 -157 -159 0
-211 -188 -155 -189 -157 -159 0
-212 -191 -155 -192 -157 -159 0
-213 -194 -155 -195 -157 -159 0
-214 -197 -155 -198 -157 -159 0
-215 -200 -155 -201 -157 -159 0
-216 -164 -161 -165 -162 -159 0
-217 -167 -161 -168 -162 -159 0
-218 -170 -161 -171 -162 -159 0
-219 -173 -161 -174 -162 -159 0
-220 -176 -161 -177 -162 -159 0
-221 -179 -161 -180 -162 -159 0
-222 -182 -161 -183 -162 -159 0
-223 -185 -161 -186 -162 -159 0
-224 -188 -161 -189 -162 -159 0
-225 -191 -161 -192 -162 -159 0
-226 -194 -161 -195 -162 -159 0
-227 -197 -161 -198 -162 -159 0
-228 -200 -161 -201 -162 -159 0
-229 -167 -164 -168 -165 -159 0
-230 -170 -164 -171 -165 -159 0
-231 -173 -164 -174 -165 -159 0
-232 -176 -164 -177 -165 -159 0
-233 -179 -164 -180 -165 -159 0
-234 -182 -164 -183 -165 -159 0
-235 -185 -164 -186 -165 -159 0
-236 -188 -164 -189 -165 -159 0
-237 -191 -164 -192 -165 -159 0
-238 -194 -164 -195 -165 -159 0
-239 -197 -164 -198 -165 -159 0
-240 -200 -164 -201 -165 -159 0
-241 -170 -167 -171 -168 -159 0
-242 -173 -167 -174 -168 -159 0
-243 -176 -167 -177 -168 -159 0
-244 -179 -167 -180 -168 -159 0
-245 -182 -167 -183 -168 -159 0
-246 -185 -167 -186 -168 -159 0
-247 -188 -167 -189 -168 -159 0
-248 -191 -167 -192 -168 -159 0
-249 -194 -167 -195 -168 -159 0
-250 -197 -167 -198 -168 -159 0
-251 -200 -167 -201 -168 -159 0
-252 -173 -170 -174 -171 -159 0
-253 -176 -170 -177 -171 -159 0
-254 -179 -170 -180 -171 -159 0
-255 -182 -170 -183 -171 -159 0
-256 -185 -170 -186 -171 -159 0
-257 -188 -170 -189 -171 -159 0
-258 -191 -170 -192 -171 -159 0
-259 -194 -170 -195 -171 -159 0
-260 -197 -170 -198 -171 -159 0
-261 -200 -170 -201 -171 -159 0
-262 -176 -173 -177 -174 -159 0
-263 -179 -173 -180 -174 -159 0
-264 -182 -173 -183 -174 -159 0
-265 -185 -173 -186 -174 -159 0
-266 -188 -173 -189 -174 -159 0
-267 -191 -173 -192 -174 -159 0
-268 -194 -173 -195 -174 -159 0
-269 -197 -173 -198 -174 -159 0
-270 -200 -173 -201 -174 -159 0
-271 -179 -176 -180 -177 -159 0
-272 -182 -176 -183 -177 -159 0
-273 -185 -176 -186 -177 -159 0
-274 -188 -176 -189 -177 -159 0
-275 -191 -176 -192 -177 -159 0
-276 -194 -176 -195 -177 -159 0
-277 -197 -176 -198 -177 -159 0
-278 -200 -176 -201 -177 -159 0
-279 -182 -179 -183 -180 -159 0
-280 -185 -179 -186 -180 -159 0
-281 -188 -179 -189 -180 -159 0
-282 -191 -179 -192 -180 -159 0
-283 -194 -179 -195 -180 -159 0
-284 -197 -179 -198 -180 -159 0
-285 -200 -179 -201 -180 -159 0
-286 -185 -182 -186 -183 -159 0
-287 -188 -182 -189 -183 -159 0
-288 -191 -182 -192 -183 -159 0
-289 -194 -182 -195 -183 -159 0
-290 -197 -182 -198 -183 -159 0
-291 -200 -182 -201 -183 -159 0
-292 -188 -185 -189 -186 -159 0
-293 -191 -185 -192 -186 -159 0
-294 -194 -185 -195 -186 -159 0
-295 -197 -185 -198 -186 -159 0
-296 -200 -185 -201 -186 -159 0
-297 -191 -188 -192 -189 -159 0
-298 -194 -188 -195 -189 -159 0
-299 -197 -188 -198 -189 -159 0
-300 -200 -188 -201 -189 -159 0
-301 -194 -191 -195 -192 -159 0
-302 -197 -191 -198 -192 -159 0
-303 -200 -191 -201 -192 -159 0
-304 -197 -194 -198 -195 -159 0
-305 -200 -194 -201 -195 -159 0
-306 -200 -197 -201 -198 -159 0
-202 -160 -154 -162 -157 -158 0
-203 -163 -154 -165 -157 -158 0
-204 -166 -154 -168 -157 -158 0
-205 -169 -154 -171 -157 -158 0
-206 -172 -154 -174 -157 -158 0
-207 -175 -154 -177 -157 -158 0
-208 -178 -154 -180 -157 -158 0
-209 -181 -154 -183 -157 -158 0
-210 -184 -154 -186 -157 -158 0
-211 -187 -154 -189 -157 -158 0
-212 -190 -154 -192 -157 -158 0
-213 -193 -154 -195 -157 -158 0
-214 -196 -154 -198 -157 -158 0
-215 -199 -154 -201 -157 -158 0
-216 -163 -160 -165 -162 -158 0
-217 -166 -160 -168 -162 -158 0
-218 -169 -160 -171 -162 -158 0
-219 -172 -160 -174 -162 -158 0
-220 -175 -160 -177 -162 -158 0
-221 -178 -160 -180 -162 -158 0
-222 -181 -160 -183 -162 -158 0
-223 -184 -160 -186 -162 -158 0
-224 -187 -160 -189 -162 -158 0
-225 -190 -160 -192 -162 -158 0
-226 -193 -160 -195 -162 -158 0
-227 -196 -160 -198 -162 -158 0
-228 -199 -160 -201 -162 -158 0
-229 -166 -163 -168 -165 -158 0
-230 -169 -163 -171 -165 -158 0
-231 -172 -163 -174 -165 -158 0
-232 -175 -163 -177 -165 -158 0
-233 -178 -163 -180 -165 -158 0
-234 -181 -163 -183 -165 -158 0
-235 -184 -163 -186 -165 -158 0
-236 -187 -163 -189 -165 -158 0
-237 -190 -163 -192 -165 -158 0
-238 -193 -163 -195 -165 -158 0
-239 -196 -163 -198 -165 -158 0
-240 -199 -163 -201 -165 -158 0
-241 -169 -166 -171 -168 -158 0
-242 -172 -166 -174 -168 -158 0
-243 -175 -166 -177 -168 -158 0
-244 -178 -166 -180 -168 -158 0
-245 -181 -166 -183 -168 -158 0
-246 -184 -166 -186 -168 -158 0
-247 -187 -166 -189 -168 -158 0
-248 -190 -166 -192 -168 -158 0
-249 -193 -166 -195 -168 -158 0
-250 -196 -166 -198 -168 -158 0
-251 -199 -166 -201 -168 -158 0
-252 -172 -169 -174 -171 -158 0
-253 -175 -169 -177 -171 -158 0
-254 -178 -169 -180 -171 -158 0
-255 -181 -169 -183 -171 -158 0
-256 -184 -169 -186 -171 -158 0
-257 -187 -169 -189 -171 -158 0
-258 -190 -169 -192 -171 -158 0
-259 -193 -169 -195 -171 -158 0
-260 -196 -169 -198 -171 -158 0
-261 -199 -169 -201 -171 -158 0
-262 -175 -172 -177 -174 -158 0
-263 -178 -172 -180 -174 -158 0
-264 -181 -172 -183 -174 -158 0
-265 -184 -172 -186 -174 -158 0
-266 -187 -172 -189 -174 -158 0
-267 -190 -172 -192 -174 -158 0
-268 -193 -172 -195 -174 -158 0
-269 -196 -172 -198 -174 -158 0
-270 -199 -172 -201 -174 -158 0
-271 -178 -175 -180 -177 -158 0
-272 -181 -175 -183 -177 -158 0
-273 -184 -175 -186 -177 -158 0
-274 -187 -175 -189 -177 -158 0
-275 -190 -175 -192 -177 -158 0
-276 -193 -175 -195 -177 -158 0
-277 -196 -175 -198 -177 -158 0
-278 -199 -175 -201 -177 -158 0
-279 -181 -178 -183 -180 -158 0
-280 -184 -178 -186 -180 -158 0
-281 -187 -178 -189 -180 -158 0
-282 -190 -178 -192 -180 -158 0
-283 -193 -178 -195 -180 -158 0
-284 -196 -178 -198 -180 -158 0
-285 -199 -178 -201 -180 -158 0
-286 -184 -181 -186 -183 -158 0
-287 -187 -181 -189 -183 -158 0
-288 -190 -181 -192 -183 -158 0
-289 -193 -181 -195 -183 -158 0
-290 -196 -181 -198 -183 -158 0
-291 -199 -181 -201 -183 -158 0
-292 -187 -184 -189 -186 -158 0
-293 -190 -184 -192 -186 -158 0
-294 -193 -184 -195 -186 -158 0
-295 -196 -184 -198 -186 -158 0
-296 -199 -184 -201 -186 -158 0
-297 -190 -187 -192 -189 -158 0
-298 -193 -187 -195 -189 -158 0
-299 -196 -187 -198 -189 -158 0
-300 -199 -187 -201 -189 -158 0
-301 -193 -190 -195 -192 -158 0
-302 -196 -190 -198 -192 -158 0
-303 -199 -190 -201 -192 -158 0
-304 -196 -193 -198 -195 -158 0
-305 -199 -193 -201 -195 -158 0
-306 -199 -196 -201 -198 -158 0
-216 -203 -202 -165 -162 -157 0
-217 -204 -202 -168 -162 -157 0
-218 -205 -202 -171 -162 -157 0
-219 -206 -202 -174 -162 -157 0
-220 -207 -202 -177 -162 -157 0
-221 -208 -202 -180 -162 -157 0
-222 -209 -202 -183 -162 -157 0
-223 -210 -202 -186 -162 -157 0
-224 -211 -202 -189 -162 -157 0
-225 -212 -202 -192 -162 -157 0
-226 -213 -202 -195 -162 -157 0
-227 -214 -202 -198 -162 -157 0
-228 -215 -202 -201 -162 -157 0
-229 -204 -203 -168 -165 -157 0
-230 -205 -203 -171 -165 -157 0
-231 -206 -203 -174 -165 -157 0
-232 -207 -203 -177 -165 -157 0
-233 -208 -203 -180 -165 -157 0
-234 -209 -203 -183 -165 -157 0
-235 -210 -203 -186 -165 -157 0
-236 -211 -203 -189 -165 -157 0
-237 -212 -203 -192 -165 -157 0
-238 -213 -203 -195 -165 -157 0
-239 -214 -203 -198 -165 -157 0
-240 -215 -203 -201 -165 -157 0
-241 -205 -204 -171 -168 -157 0
-242 -206 -204 -174 -168 -157 0
-243 -207 -204 -177 -168 -157 0
-244 -208 -204 -180 -168 -157 0
-245 -209 -204 -183 -168 -157 0
-246 -210 -204 -186 -168 -157 0
-247 -211 -204 -189 -168 -157 0
-248 -212 -204 -192 -168 -157 0
-249 -213 -204 -195 -168 -157 0
-250 -214 -204 -198 -168 -157 0
-251 -215 -204 -201 -168 -157 0
-252 -206 -205 -174 -171 -157 0
-253 -207 -205 -177 -171 -157 0
-254 -208 -205 -180 -171 -157 0
-255 -209 -205 -183 -171 -157 0
-256 -210 -205 -186 -171 -157 0
-257 -211 -205 -189 -171 -157 0
-258 -212 -205 -192 -171 -157 0
-259 -213 -205 -195 -171 -157 0
-260 -214 -205 -198 -171 -157 0
-261 -215 -205 -201 -171 -157 0
-262 -207 -206 -177 -174 -157 0
-263 -208 -206 -180 -174 -157 0
-264 -209 -206 -183 -174 -157 0
-265 -210 -206 -186 -174 -157 0
-266 -211 -206 -189 -174 -157 0
-267 -212 -206 -192 -174 -157 0
-268 -213 -206 -195 -174 -157 0
-269 -214 -206 -198 -174 -157 0
-270 -215 -206 -201 -174 -157 0
-271 -208 -207 -180 -177 -157 0
-272 -209 -207 -183 -177 -157 0
-273 -210 -207 -186 -177 -157 0
-274 -211 -207 -189 -177 -157 0
-275 -212 -207 -192 -177 -157 0
-276 -213 -207 -195 -177 -157 0
-277 -214 -207 -198 -177 -157 0
-278 -215 -207 -201 -177 -157 0
-279 -209 -208 -183 -180 -157 0
-280 -210 -208 -186 -180 -157 0
-281 -211 -208 -189 -180 -157 0
-282 -212 -208 -192 -180 -157 0
-283 -213 -208 -195 -180 -157 0
-284 -214 -208 -198 -180 -157 0
-285 -215 -208 -201 -180 -157 0
-286 -210 -209 -186 -183 -157 0
-287 -211 -209 -189 -183 -157 0
-288 -212 -209 -192 -183 -157 0
-289 -213 -209 -195 -183 -157 0
-290 -214 -209 -198 -183 -157 0
-291 -215 -209 -201 -183 -157 0
-292 -211 -210 -189 -186 -157 0
-293 -212 -210 -192 -186 -157 0
-294 -213 -210 -195 -186 -157 0
-295 -214 -210 -198 -186 -157 0
-296 -215 -210 -201 -186 -157 0
-297 -212 -211 -192 -189 -157 0
-298 -213 -211 -195 -189 -157 0
-299 -214 -211 -198 -189 -157 0
-300 -215 -211 -201 -189 -157 0
-301 -213 -212 -195 -192 -157 0
-302 -214 -212 -198 -192 -157 0
-303 -215 -212 -201 -192 -157 0
-304 -214 -213 -198 -195 -157 0
-305 -215 -213 -201 -195 -157 0
-306 -215 -214 -201 -198 -157 0
-229 -217 -216 -168 -165 -162 0
-230 -218 -216 -171 -165 -162 0
-231 -219 -216 -174 -165 -162 0
-232 -220 -216 -177 -165 -162 0
-233 -221 -216 -180 -165 -162 0
-234 -222 -216 -183 -165 -162 0
-235 -223 -216 -186 -165 -162 0
-236 -224 -216 -189 -165 -162 0
-237 -225 -216 -192 -165 -162 0
-238 -226 -216 -195 -165 -162 0
-239 -227 -216 -198 -165 -162 0
-240 -228 -216 -201 -165 -162 0
-241 -218 -217 -171 -168 -162 0
-242 -219 -217 -174 -168 -162 0
-243 -220 -217 -177 -168 -162 0
-244 -221 -217 -180 -168 -162 0
-245 -222 -217 -183 -168 -162 0
-246 -223 -217 -186 -168 -162 0
-247 -224 -217 -189 -168 -162 0
-248 -225 -217 -192 -168 -162 0
-249 -226 -217 -195 -168 -162 0
-250 -227 -217 -198 -168 -162 0
-251 -228 -217 -201 -168 -162 0
-252 -219 -218 -174 -171 -162 0
-253 -220 -218 -177 -171 -162 0
-254 -221 -218 -180 -171 -162 0
-255 -222 -218 -183 -171 -162 0
-256 -223 -218 -186 -171 -162 0
-257 -224 -218 -189 -171 -162 0
-258 -225 -218 -192 -171 -162 0
-259 -226 -218 -195 -171 -162 0
-260 -227 -218 -198 -171 -162 0
-261 -228 -218 -201 -171 -162 0
-262 -220 -219 -177 -174 -162 0
-263 -221 -219 -180 -174 -162 0
-264 -222 -219 -183 -174 -162 0
-265 -223 -219 -186 -174 -162 0
-266 -224 -219 -189 -174 -162 0
-267 -225 -219 -192 -174 -162 0
-268 -226 -219 -195 -174 -162 0
-269 -227 -219 -198 -174 -162 0
-270 -228 -219 -201 -174 -162 0
-271 -221 -220 -180 -177 -162 0
-272 -222 -220 -183 -177 -162 0
-273 -223 -220 -186 -177 -162 0
-274 -224 -220 -189 -177 -162 0
-275 -225 -220 -192 -177 -162 0
-276 -226 -220 -195 -177 -162 0
-277 -227 -220 -198 -177 -162 0
-278 -228 -220 -201 -177 -162 0
-279 -222 -221 -183 -180 -162 0
-280 -223 -221 -186 -180 -162 0
-281 -224 -221 -189 -180 -162 0
-282 -225 -221 -192 -180 -162 0
-283 -226 -221 -195 -180 -162 0
-284 -227 -221 -198 -180 -162 0
-285 -228 -221 -201 -180 -162 0
-286 -223 -222 -186 -183 -162 0
-287 -224 -222 -189 -183 -162 0
-288 -225 -222 -192 -183 -162 0
-289 -226 -222 -195 -183 -162 0
-290 -227 -222 -198 -183 -162 0
-291 -228 -222 -201 -183 -162 0
-292 -224 -223 -189 -186 -162 0
-293 -225 -223 -192 -186 -162 0
-294 -226 -223 -195 -186 -162 0
-295 -227 -223 -198 -186 -162 0
-296 -228 -223 -201 -186 -162 0
-297 -225 -224 -192 -189 -162 0
-298 -226 -224 -195 -189 -162 0
-299 -227 -224 -198 -189 -162 0
-300 -228 -224 -201 -189 -162 0
-301 -226 -225 -195 -192 -162 0
-302 -227 -225 -198 -192 -162 0
-303 -228 -225 -201 -192 -162 0
-304 -227 -226 -198 -195 -162 0
-305 -228 -226 -201 -195 -162 0
-306 -228 -227 -201 -198 -162 0
-241 -230 -229 -171 -168 -165 0
-242 -231 -229 -174 -168 -165 0
-243 -232 -229 -177 -168 -165 0
-244 -233 -229 -180 -168 -165 0
-245 -234 -229 -183 -168 -165 0
-246 -235 -229 -186 -168 -165 0
-247 -236 -229 -189 -168 -165 0
-248 -237 -229 -192 -168 -165 0
-249 -238 -229 -195 -168 -165 0
-250 -239 -229 -198 -168 -165 0
-251 -240 -229 -201 -168 -165 0
-252 -231 -230 -174 -171 -165 0
-253 -232 -230 -177 -171 -165 0
-254 -233 -230 -180 -171 -165 0
-255 -234 -230 -183 -171 -165 0
-256 -235 -230 -186 -171 -165 0
-257 -236 -230 -189 -171 -165 0
-258 -237 -230 -192 -171 -165 0
-259 -238 -230 -195 -171 -165 0
-260 -239 -230 -198 -171 -165 0
-261 -240 -230 -201 -171 -165 0
-262 -232 -231 -177 -174 -165 0
-263 -233 -231 -180 -174 -165 0
-264 -234 -231 -183 -174 -165 0
-265 -235 -231 -186 -174 -165 0
-266 -236 -231 -189 -174 -165 0
-267 -237 -231 -192 -174 -165 0
-268 -238 -231 -195 -174 -165 0
-269 -239 -231 -198 -174 -165 0
-270 -240 -231 -201 -174 -165 0
-271 -233 -232 -180 -177 -165 0
-272 -234 -232 -183 -177 -165 0
-273 -235 -232 -186 -177 -165 0
-274 -236 -232 -189 -177 -165 0
-275 -237 -232 -192 -177 -165 0
-276 -238 -232 -195 -177 -165 0
-277 -239 -232 -198 -177 -165 0
-278 -240 -232 -201 -177 -165 0
-279 -234 -233 -183 -180 -165 0
-280 -235 -233 -186 -180 -165 0
-281 -236 -233 -189 -180 -165 0
-282 -237 -233 -192 -180 -165 0
-283 -238 -233 -195 -180 -165 0
-284 -239 -233 -198 -180 -165 0
-285 -240 -233 -201 -180 -165 0
-286 -235 -234 -186 -183 -165 0
-287 -236 -234 -189 -183 -165 0
-288 -237 -234 -192 -183 -165 0
-289 -238 -234 -195 -183 -165 0
-290 -239 -234 -198 -183 -165 0
-291 -240 -234 -201 -183 -165 0
-292 -236 -235 -189 -186 -165 0
-293 -237 -235 -192 -186 -165 0
-294 -238 -235 -195 -186 -165 0
-295 -239 -235 -198 -186 -165 0
-296 -240 -235 -201 -186 -165 0
-297 -237 -236 -192 -189 -165 0
-298 -238 -236 -195 -189 -165 0
-299 -239 -236 -198 -189 -165 0
-300 -240 -236 -201 -189 -165 0
-301 -238 -237 -195 -192 -165 0
-302 -239 -237 -198 -192 -165 0
-303 -240 -237 -201 -192 -165 0
-304 -239 -238 -198 -195 -165 0
-305 -240 -238 -201 -195 -165 0
-306 -240 -239 -201 -198 -165 0
-252 -242 -241 -174 -171 -168 0
-253 -243 -241 -177 -171 -168 0
-254 -244 -241 -180 -171 -168 0
-255 -245 -241 -183 -171 -168 0
-256 -246 -241 -186 -171 -168 0
-257 -247 -241 -189 -171 -168 0
-258 -248 -241 -192 -171 -168 0
-259 -249 -241 -195 -171 -168 0
-260 -250 -241 -198 -171 -168 0
-261 -251 -241 -201 -171 -168 0
-262 -243 -242 -177 -174 -168 0
-263 -244 -242 -180 -174 -168 0
-264 -245 -242 -183 -174 -168 0
-265 -246 -242 -186 -174 -168 0
-266 -247 -242 -189 -174 -168 0
-267 -248 -242 -192 -174 -168 0
-268 -249 -242 -195 -174 -168 0
-269 -250 -242 -198 -174 -168 0
-270 -251 -242 -201 -174 -168 0
-271 -244 -243 -180 -177 -168 0
-272 -245 -243 -183 -177 -168 0
-273 -246 -243 -186 -177 -168 0
-274 -247 -243 -189 -177 -168 0
-275 -248 -243 -192 -177 -168 0
-276 -249 -243 -195 -177 -168 0
-277 -250 -243 -198 -177 -168 0
-278 -251 -243 -201 -177 -168 0
-279 -245 -244 -183 -180 -168 0
-280 -246 -244 -186 -180 -168 0
-281 -247 -244 -189 -180 -168 0
-282 -248 -244 -192 -180 -168 0
-283 -249 -244 -195 -180 -168 0
-284 -250 -244 -198 -180 -168 0
-285 -251 -244 -201 -180 -168 0
-286 -246 -245 -186 -183 -168 0
-287 -247 -245 -189 -183 -168 0
-288 -248 -245 -192 -183 -168 0
-289 -249 -245 -195 -183 -168 0
-290 -250 -245 -198 -183 -168 0
-291 -251 -245 -201 -183 -168 0
-292 -247 -246 -189 -186 -168 0
-293 -248 -246 -192 -186 -168 0
-294 -249 -246 -195 -186 -168 0
-295 -250 -246 -198 -186 -168 0
-296 -251 -246 -201 -186 -168 0
-297 -248 -247 -192 -189 -168 0
-298 -249 -247 -195 -189 -168 0
-299 -250 -247 -198 -189 -168 0
-300 -251 -247 -201 -189 -168 0
-301 -249 -248 -195 -192 -168 0
-302 -250 -248 -198 -192 -168 0
-303 -251 -248 -201 -192 -168 0
-304 -250 -249 -198 -195 -168 0
-305 -251 -249 -201 -195 -168 0
-306 -251 -250 -201 -198 -168 0
-262 -253 -252 -177 -174 -171 0
-263 -254 -252 -180 -174 -171 0
-264 -255 -252 -183 -174 -171 0
-265 -256 -252 -186 -174 -171 0
-266 -257 -252 -189 -174 -171 0
-267 -258 -252 -192 -174 -171 0
-268 -259 -252 -195 -174 -171 0
-269 -260 -252 -198 -174 -171 0
-270 -261 -252 -201 -174 -171 0
-271 -254 -253 -180 -177 -171 0
-272 -255 -253 -183 -177 -171 0
-273 -256 -253 -186 -177 -171 0
-274 -257 -253 -189 -177 -171 0
-275 -258 -253 -192 -177 -171 0
-276 -259 -253 -195 -177 -171 0
-277 -260 -253 -198 -177 -171 0
-278 -261 -253 -201 -177 -171 0
-279 -255 -254 -183 -180 -171 0
-280 -256 -254 -186 -180 -171 0
-281 -257 -254 -189 -180 -171 0
-282 -258 -254 -192 -180 -171 0
-283 -259 -254 -195 -180 -171 0
-284 -260 -254 -198 -180 -171 0
-285 -261 -254 -201 -180 -171 0
-286 -256 -255 -186 -183 -171 0
-287 -257 -255 -189 -183 -171 0
-288 -258 -255 -192 -183 -171 0
-289 -259 -255 -195 -183 -171 0
-290 -260 -255 -198 -183 -171 0
-291 -261 -255 -201 -183 -171 0
-292 -257 -256 -189 -186 -171 0
-293 -258 -256 -192 -186 -171 0
-294 -259 -256 -195 -186 -171 0
-295 -260 -256 -198 -186 -171 0
-296 -261 -256 -201 -186 -171 0
-297 -258 -257 -192 -189 -171 0
-298 -259 -257 -195 -189 -171 0
-299 -260 -257 -198 -189 -171 0
-300 -261 -257 -201 -189 -171 0
-301 -259 -258 -195 -192 -171 0
-302 -260 -258 -198 -192 -171 0
-303 -261 -258 -201 -192 -171 0
-304 -260 -259 -198 -195 -171 0
-305 -261 -259 -201 -195 -171 0
-306 -261 -260 -201 -198 -171 0
-271 -263 -262 -180 -177 -174 0
-272 -264 -262 -183 -177 -174 0
-273 -265 -262 -186 -177 -174 0
-274 -266 -262 -189 -177 -174 0
-275 -267 -262 -192 -177 -174 0
-276 -268 -262 -195 -177 -174 0
-277 -269 -262 -198 -177 -174 0
-278 -270 -262 -201 -177 -174 0
-279 -264 -263 -183 -180 -174 0
-280 -265 -263 -186 -180 -174 0
-281 -266 -263 -189 -180 -174 0
-282 -267 -263 -192 -180 -174 0
-283 -268 -263 -195 -180 -174 0
-284 -269 -263 -198 -180 -174 0
-285 -270 -263 -201 -180 -174 0
-286 -265 -264 -186 -183 -174 0
-287 -266 -264 -189 -183 -174 0
-288 -267 -264 -192 -183 -174 0
-289 -268 -264 -195 -183 -174 0
-290 -269 -264 -198 -183 -174 0
-291 -270 -264 -201 -183 -174 0
-292 -266 -265 -189 -186 -174 0
-293 -267 -265 -192 -186 -174 0
-294 -268 -265 -195 -186 -174 0
-295 -269 -265 -198 -186 -174 0
-296 -270 -265 -201 -186 -174 0
-297 -267 -266 -192 -189 -174 0
-298 -268 -266 -195 -189 -174 0
-299 -269 -266 -198 -189 -174 0
-300 -270 -266 -201 -189 -174 0
-301 -268 -267 -195 -192 -174 0
-302 -269 -267 -198 -192 -174 0
-303 -270 -267 -201 -192 -174 0
-304 -269 -268 -198 -195 -174 0
-305 -270 -268 -201 -195 -174 0
-306 -270 -269 -201 -198 -174 0
-279 -272 -271 -183 -180 -177 0
-280 -273 -271 -186 -180 -177 0
-281 -274 -271 -189 -180 -177 0
-282 -275 -271 -192 -180 -177 0
-283 -276 -271 -195 -180 -177 0
-284 -277 -271 -198 -180 -177 0
-285 -278 -271 -201 -180 -177 0
-286 -273 -272 -186 -183 -177 0
-287 -274 -272 -189 -183 -177 0
-288 -275 -272 -192 -183 -177 0
-289 -276 -272 -195 -183 -177 0
-290 -277 -272 -198 -183 -177 0
-291 -278 -272 -201 -183 -177 0
-292 -274 -273 -189 -186 -177 0
-293 -275 -273 -192 -186 -177 0
-294 -276 -273 -195 -186 -177 0
-295 -277 -273 -198 -186 -177 0
-296 -278 -273 -201 -186 -177 0
-297 -275 -274 -192 -189 -177 0
-298 -276 -274 -195 -189 -177 0
-299 -277 -274 -198 -189 -177 0
-300 -278 -274 -201 -189 -177 0
-301 -276 -275 -195 -192 -177 0
-302 -277 -275 -198 -192 -177 0
-303 -278 -275 -201 -192 -177 0
-304 -277 -276 -198 -195 -177 0
-305 -278 -276 -201 -195 -177 0
-306 -278 -277 -201 -198 -177 0
-286 -280 -279 -186 -183 -180 0
-287 -281 -279 -189 -183 -180 0
-288 -282 -279 -192 -183 -180 0
-289 -283 -279 -195 -183 -180 0
-290 -284 -279 -198 -183 -180 0
-291 -285 -279 -201 -183 -180 0
-292 -281 -280 -189 -186 -180 0
-293 -282 -280 -192 -186 -180 0
-294 -283 -280 -195 -186 -180 0
-295 -284 -280 -198 -186 -180 0
-296 -285 -280 -201 -186 -180 0
-297 -282 -281 -192 -189 -180 0
-298 -283 -281 -195 -189 -180 0
-299 -284 -281 -198 -189 -180 0
-300 -285 -281 -201 -189 -180 0
-301 -283 -282 -195 -192 -180 0
-302 -284 -282 -198 -192 -180 0
-303 -285 -282 -201 -192 -180 0
-304 -284 -283 -198 -195 -180 0
-305 -285 -283 -201 -195 -180 0
-306 -285 -284 -201 -198 -180 0
-292 -287 -286 -189 -186 -183 0
-293 -288 -286 -192 -186 -183 0
-294 -289 -286 -195 -186 -183 0
-295 -290 -286 -198 -186 -183 0
-296 -291 -286 -201 -186 -183 0
-297 -288 -287 -192 -189 -183 0
-298 -289 -287 -195 -189 -183 0
-299 -290 -287 -198 -189 -183 0
-300 -291 -287 -201 -189 -183 0
-301 -289 -288 -195 -192 -183 0
-302 -290 -288 -198 -192 -183 0
-303 -291 -288 -201 -192 -183 0
-304 -290 -289 -198 -195 -183 0
-305 -291 -289 -201 -195 -183 0
-306 -291 -290 -201 -198 -183 0
-297 -293 -292 -192 -189 -186 0
-298 -294 -292 -195 -189 -186 0
-299 -295 -292 -198 -189 -186 0
-300 -296 -292 -201 -189 -186 0
-301 -294 -293 -195 -192 -186 0
-302 -295 -293 -198 -192 -186 0
-303 -296 -293 -201 -192 -186 0
-304 -295 -294 -198 -195 -186 0
-305 -296 -294 -201 -195 -186 0
-306 -296 -295 -201 -198 -186 0
-301 -298 -297 -195 -192 -189 0
-302 -299 -297 -198 -192 -189 0
-303 -300 -297 -201 -192 -189 0
-304 -299 -298 -198 -195 -189 0
-305 -300 -298 -201 -195 -189 0
-306 -300 -299 -201 -198 -189 0
-304 -302 -301 -198 -195 -192 0
-305 -303 -301 -201 -195 -192 0
-306 -303 -302 -201 -198 -192 0
-306 -305 -304 -201 -198 -195 0
-202 -160 -154 -161 -155 -156 0
-203 -163 -154 -164 -155 -156 0
-204 -166 -154 -167 -155 -156 0
-205 -169 -154 -170 -155 -156 0
-206 -172 -154 -173 -155 -156 0
-207 -175 -154 -176 -155 -156 0
-208 -178 -154 -179 -155 -156 0
-209 -181 -154 -182 -155 -156 0
-210 -184 -154 -185 -155 -156 0
-211 -187 -154 -188 -155 -156 0
-212 -190 -154 -191 -155 -156 0
-213 -193 -154 -194 -155 -156 0
-214 -196 -154 -197 -155 -156 0
-215 -199 -154 -200 -155 -156 0
-216 -163 -160 -164 -161 -156 0
-217 -166 -160 -167 -161 -156 0
-218 -169 -160 -170 -161 -156 0
-219 -172 -160 -173 -161 -156 0
-220 -175 -160 -176 -161 -156 0
-221 -178 -160 -179 -161 -156 0
-222 -181 -160 -182 -161 -156 0
-223 -184 -160 -185 -161 -156 0
-224 -187 -160 -188 -161 -156 0
-225 -190 -160 -191 -161 -156 0
-226 -193 -160 -194 -161 -156 0
-227 -196 -160 -197 -161 -156 0
-228 -199 -160 -200 -161 -156 0
-229 -166 -163 -167 -164 -156 0
-230 -169 -163 -170 -164 -156 0
-231 -172 -163 -173 -164 -156 0
-232 -175 -163 -176 -164 -156 0
-233 -178 -163 -179 -164 -156 0
-234 -181 -163 -182 -164 -156 0
-235 -184 -163 -185 -164 -156 0
-236 -187 -163 -188 -164 -156 0
-237 -190 -163 -191 -164 -156 0
-238 -193 -163 -194 -164 -156 0
-239 -196 -163 -197 -164 -156 0
-240 -199 -163 -200 -164 -156 0
-241 -169 -166 -170 -167 -156 0
-242 -172 -166 -173 -167 -156 0
-243 -175 -166 -176 -167 -156 0
-244 -178 -166 -179 -167 -156 0
-245 -181 -166 -182 -167 -156 0
-246 -184 -166 -185 -167 -156 0
-247 -187 -166 -188 -167 -156 0
-248 -190 -166 -191 -167 -156 0
-249 -193 -166 -194 -167 -156 0
-250 -196 -166 -197 -167 -156 0
-251 -199 -166 -200 -167 -156 0
-252 -172 -169 -173 -170 -156 0
-253 -175 -169 -176 -170 -156 0
-254 -178 -169 -179 -170 -156 0
-255 -181 -169 -182 -170 -156 0
-256 -184 -169 -185 -170 -156 0
-257 -187 -169 -188 -170 -156 0
-258 -190 -169 -191 -170 -156 0
-259 -193 -169 -194 -170 -156 0
-260 -196 -169 -197 -170 -156 0
-261 -199 -169 -200 -170 -156 0
-262 -175 -172 -176 -173 -156 0
-263 -178 -172 -179 -173 -156 0
-264 -181 -172 -182 -173 -156 0
-265 -184 -172 -185 -173 -156 0
-266 -187 -172 -188 -173 -156 0
-267 -190 -172 -191 -173 -156 0
-268 -193 -172 -194 -173 -156 0
-269 -196 -172 -197 -173 -156 0
-270 -199 -172 -200 -173 -156 0
-271 -178 -175 -179 -176 -156 0
-272 -181 -175 -182 -176 -156 0
-273 -184 -175 -185 -176 -156 0
-274 -187 -175 -188 -176 -156 0
-275 -190 -175 -191 -176 -156 0
-276 -193 -175 -194 -176 -156 0
-277 -196 -175 -197 -176 -156 0
-278 -199 -175 -200 -176 -156 0
-279 -181 -178 -182 -179 -156 0
-280 -184 -178 -185 -179 -156 0
-281 -187 -178 -188 -179 -156 0
-282 -190 -178 -191 -179 -156 0
-283 -193 -178 -194 -179 -156 0
-284 -196 -178 -197 -179 -156 0
-285 -199 -178 -200 -179 -156 0
-286 -184 -181 -185 -182 -156 0
-287 -187 -181 -188 -182 -156 0
-288 -190 -181 -191 -182 -156 0
-289 -193 -181 -194 -182 -156 0
-290 -196 -181 -197 -182 -156 0
-291 -199 -181 -200 -182 -156 0
-292 -187 -184 -188 -185 -156 0
-293 -190 -184 -191 -185 -156 0
-294 -193 -184 -194 -185 -156 0
-295 -196 -184 -197 -185 -156 0
-296 -199 -184 -200 -185 -156 0
-297 -190 -187 -191 -188 -156 0
-298 -193 -187 -194 -188 -156 0
-299 -196 -187 -197 -188 -156 0
-300 -199 -187 -200 -188 -156 0
-301 -193 -190 -194 -191 -156 0
-302 -196 -190 -197 -191 -156 0
-303 -199 -190 -200 -191 -156 0
-304 -196 -193 -197 -194 -156 0
-305 -199 -193 -200 -194 -156 0
-306 -199 -196 -200 -197 -156 0
-216 -203 -202 -164 -161 -155 0
-217 -204 -202 -167 -161 -155 0
-218 -205 -202 -170 -161 -155 0
-219 -206 -202 -173 -161 -155 0
-220 -207 -202 -176 -161 -155 0
-221 -208 -202 -179 -161 -155 0
-222 -209 -202 -182 -161 -155 0
-223 -210 -202 -185 -161 -155 0
-224 -211 -202 -188 -161 -155 0
-225 -212 -202 -191 -161 -155 0
-226 -213 -202 -194 -161 -155 0
-227 -214 -202 -197 -161 -155 0
-228 -215 -202 -200 -161 -155 0
-229 -204 -203 -167 -164 -155 0
-230 -205 -203 -170 -164 -155 0
-231 -206 -203 -173 -164 -155 0
-232 -207 -203 -176 -164 -155 0
-233 -208 -203 -179 -164 -155 0
-234 -209 -203 -182 -164 -155 0
-235 -210 -203 -185 -164 -155 0
-236 -211 -203 -188 -164 -155 0
-237 -212 -203 -191 -164 -155 0
-238 -213 -203 -194 -164 -155 0
-239 -214 -203 -197 -164 -155 0
-240 -215 -203 -200 -164 -155 0
-241 -205 -204 -170 -167 -155 0
-242 -206 -204 -173 -167 -155 0
-243 -207 -204 -176 -167 -155 0
-244 -208 -204 -179 -167 -155 0
-245 -209 -204 -182 -167 -155 0
-246 -210 -204 -185 -167 -155 0
-247 -211 -204 -188 -167 -155 0
-248 -212 -204 -191 -167 -155 0
-249 -213 -204 -194 -167 -155 0
-250 -214 -204 -197 -167 -155 0
-251 -215 -204 -200 -167 -155 0
-252 -206 -205 -173 -170 -155 0
-253 -207 -205 -176 -170 -155 0
-254 -208 -205 -179 -170 -155 0
-255 -209 -205 -182 -170 -155 0
-256 -210 -205 -185 -170 -155 0
-257 -211 -205 -188 -170 -155 0
-258 -212 -205 -191 -170 -155 0
-259 -213 -205 -194 -170 -155 0
-260 -214 -205 -197 -170 -155 0
-261 -215 -205 -200 -170 -155 0
-262 -207 -206 -176 -173 -155 0
-263 -208 -206 -179 -173 -155 0
-264 -209 -206 -182 -173 -155 0
-265 -210 -206 -185 -173 -155 0
-266 -211 -206 -188 -173 -155 0
-267 -212 -206 -191 -173 -155 0
-268 -213 -206 -194 -173 -155 0
-269 -214 -206 -197 -173 -155 0
-270 -215 -206 -200 -173 -155 0
-271 -208 -207 -179 -176 -155 0
-272 -209 -207 -182 -176 -155 0
-273 -210 -207 -185 -176 -155 0
-274 -211 -207 -188 -176 -155 0
-275 -212 -207 -191 -176 -155 0
-276 -213 -207 -194 -176 -155 0
-277 -214 -207 -197 -176 -155 0
-278 -215 -207 -200 -176 -155 0
-279 -209 -208 -182 -179 -155 0
-280 -210 -208 -185 -179 -155 0
-281 -211 -208 -188 -179 -155 0
-282 -212 -208 -191 -179 -155 0
-283 -213 -208 -194 -179 -155 0
-284 -214 -208 -197 -179 -155 0
-285 -215 -208 -200 -179 -155 0
-286 -210 -209 -185 -182 -155 0
-287 -211 -209 -188 -182 -155 0
-288 -212 -209 -191 -182 -155 0
-289 -213 -209 -194 -182 -155 0
-290 -214 -209 -197 -182 -155 0
-291 -215 -209 -200 -182 -155 0
-292 -211 -210 -188 -185 -155 0
-293 -212 -210 -191 -185 -155 0
-294 -213 -210 -194 -185 -155 0
-295 -214 -210 -197 -185 -155 0
-296 -215 -210 -200 -185 -155 0
-297 -212 -211 -191 -188 -155 0
-298 -213 -211 -194 -188 -155 0
-299 -214 -211 -197 -188 -155 0
-300 -215 -211 -200 -188 -155 0
-301 -213 -212 -194 -191 -155 0
-302 -214 -212 -197 -191 -155 0
-303 -215 -212 -200 -191 -155 0
-304 -214 -213 -197 -194 -155 0
-305 -215 -213 -200 -194 -155 0
-306 -215 -214 -200 -197 -155 0
-229 -217 -216 -167 -164 -161 0
-230 -218 -216 -170 -164 -161 0
-231 -219 -216 -173 -164 -161 0
-232 -220 -216 -176 -164 -161 0
-233 -221 -216 -179 -164 -161 0
-234 -222 -216 -182 -164 -161 0
-235 -223 -216 -185 -164 -161 0
-236 -224 -216 -188 -164 -161 0
-237 -225 -216 -191 -164 -161 0
-238 -226 -216 -194 -164 -161 0
-239 -227 -216 -197 -164 -161 0
-240 -228 -216 -200 -164 -161 0
-241 -218 -217 -170 -167 -161 0
-242 -219 -217 -173 -167 -161 0
-243 -220 -217 -176 -167 -161 0
-244 -221 -217 -179 -167 -161 0
-245 -222 -217 -182 -167 -161 0
-246 -223 -217 -185 -167 -161 0
-247 -224 -217 -188 -167 -161 0
-248 -225 -217 -191 -167 -161 0
-249 -226 -217 -194 -167 -161 0
-250 -227 -217 -197 -167 -161 0
-251 -228 -217 -200 -167 -161 0
-252 -219 -218 -173 -170 -161 0
-253 -220 -218 -176 -170 -161 0
-254 -221 -218 -179 -170 -161 0
-255 -222 -218 -182 -170 -161 0
-256 -223 -218 -185 -170 -161 0
-257 -224 -218 -188 -170 -161 0
-258 -225 -218 -191 -170 -161 0
-259 -226 -218 -194 -170 -161 0
-260 -227 -218 -197 -170 -161 0
-261 -228 -218 -200 -170 -161 0
-262 -220 -219 -176 -173 -161 0
-263 -221 -219 -179 -173 -161 0
-264 -222 -219 -182 -173 -161 0
-265 -223 -219 -185 -173 -161 0
-266 -224 -219 -188 -173 -161 0
-267 -225 -219 -191 -173 -161 0
-268 -226 -219 -194 -173 -161 0
-269 -227 -219 -197 -173 -161 0
-270 -228 -219 -200 -173 -161 0
-271 -221 -220 -179 -176 -161 0
-272 -222 -220 -182 -176 -161 0
-273 -223 -220 -185 -176 -161 0
-274 -224 -220 -188 -176 -161 0
-275 -225 -220 -191 -176 -161 0
-276 -226 -220 -194 -176 -161 0
-277 -227 -220 -197 -176 -161 0
-278 -228 -220 -200 -176 -161 0
-279 -222 -221 -182 -179 -161 0
-280 -223 -221 -185 -179 -161 0
-281 -224 -221 -188 -179 -161 0
-282 -225 -221 -191 -179 -161 0
-283 -226 -221 -194 -179 -161 0
-284 -227 -221 -197 -179 -161 0
-285 -228 -221 -200 -179 -161 0
-286 -223 -222 -185 -182 -161 0
-287 -224 -222 -188 -182 -161 0
-288 -225 -222 -191 -182 -161 0
-289 -226 -222 -194 -182 -161 0
-290 -227 -222 -197 -182 -161 0
-291 -228 -222 -200 -182 -161 0
-292 -224 -223 -188 -185 -161 0
-293 -225 -223 -191 -185 -161 0
-294 -226 -223 -194 -185 -161 0
-295 -227 -223 -197 -185 -161 0
-296 -228 -223 -200 -185 -161 0
-297 -225 -224 -191 -188 -161 0
-298 -226 -224 -194 -188 -161 0
-299 -227 -224 -197 -188 -161 0
-300 -228 -224 -200 -188 -161 0
-301 -226 -225 -194 -191 -161 0
-302 -227 -225 -197 -191 -161 0
-303 -228 -225 -200 -191 -161 0
-304 -227 -226 -197 -194 -161 0
-305 -228 -226 -200 -194 -161 0
-306 -228 -227 -200 -197 -161 0
-241 -230 -229 -170 -167 -164 0
-242 -231 -229 -173 -167 -164 0
-243 -232 -229 -176 -167 -164 0
-244 -233 -229 -179 -167 -164 0
-245 -234 -229 -182 -167 -164 0
-246 -235 -229 -185 -167 -164 0
-247 -236 -229 -188 -167 -164 0
-248 -237 -229 -191 -167 -164 0
-249 -238 -229 -194 -167 -164 0
-250 -239 -229 -197 -167 -164 0
-251 -240 -229 -200 -167 -164 0
-252 -231 -230 -173 -170 -164 0
-253 -232 -230 -176 -170 -164 0
-254 -233 -230 -179 -170 -164 0
-255 -234 -230 -182 -170 -164 0
-256 -235 -230 -185 -170 -164 0
-257 -236 -230 -188 -170 -164 0
-258 -237 -230 -191 -170 -164 0
-259 -238 -230 -194 -170 -164 0
-260 -239 -230 -197 -170 -164 0
-261 -240 -230 -200 -170 -164 0
-262 -232 -231 -176 -173 -164 0
-263 -233 -231 -179 -173 -164 0
-264 -234 -231 -182 -173 -164 0
-265 -235 -231 -185 -173 -164 0
-266 -236 -231 -188 -173 -164 0
-267 -237 -231 -191 -173 -164 0
-268 -238 -231 -194 -173 -164 0
-269 -239 -231 -197 -173 -164 0
-270 -240 -231 -200 -173 -164 0
-271 -233 -232 -179 -176 -164 0
-272 -234 -232 -182 -176 -164 0
-273 -235 -232 -185 -176 -164 0
-274 -236 -232 -188 -176 -164 0
-275 -237 -232 -191 -176 -164 0
-276 -238 -232 -194 -176 -164 0
-277 -239 -232 -197 -176 -164 0
-278 -240 -232 -200 -176 -164 0
-279 -234 -233 -182 -179 -164 0
-280 -235 -233 -185 -179 -164 0
-281 -236 -233 -188 -179 -164 0
-282 -237 -233 -191 -179 -164 0
-283 -238 -233 -194 -179 -164 0
-284 -239 -233 -197 -179 -164 0
-285 -240 -233 -200 -179 -164 0
-286 -235 -234 -185 -182 -164 0
-287 -236 -234 -188 -182 -164 0
-288 -237 -234 -191 -182 -164 0
-289 -238 -234 -194 -182 -164 0
-290 -239 -234 -197 -182 -164 0
-291 -240 -234 -200 -182 -164 0
-292 -236 -235 -188 -185 -164 0
-293 -237 -235 -191 -185 -164 0
-294 -238 -235 -194 -185 -164 0
-295 -239 -235 -197 -185 -164 0
-296 -240 -235 -200 -185 -164 0
-297 -237 -236 -191 -188 -164 0
-298 -238 -236 -194 -188 -164 0
-299 -239 -236 -197 -188 -164 0
-300 -240 -236 -200 -188 -164 0
-301 -238 -237 -194 -191 -164 0
-302 -239 -237 -197 -191 -164 0
-303 -240 -237 -200 -191 -164 0
-304 -239 -238 -197 -194 -164 0
-305 -240 -238 -200 -194 -164 0
-306 -240 -239 -200 -197 -164 0
-252 -242 -241 -173 -170 -167 0
-253 -243 -241 -176 -170 -167 0
-254 -244 -241 -179 -170 -167 0
-255 -245 -241 -182 -170 -167 0
-256 -246 -241 -185 -170 -167 0
-257 -247 -241 -188 -170 -167 0
-258 -248 -241 -191 -170 -167 0
-259 -249 -241 -194 -170 -167 0
-260 -250 -241 -197 -170 -167 0
-261 -251 -241 -200 -170 -167 0
-262 -243 -242 -176 -173 -167 0
-263 -244 -242 -179 -173 -167 0
-264 -245 -242 -182 -173 -167 0
-265 -246 -242 -185 -173 -167 0
-266 -247 -242 -188 -173 -167 0
-267 -248 -242 -191 -173 -167 0
-268 -249 -242 -194 -173 -167 0
-269 -250 -242 -197 -173 -167 0
-270 -251 -242 -200 -173 -167 0
-271 -244 -243 -179 -176 -167 0
-272 -245 -243 -182 -176 -167 0
-273 -246 -243 -185 -176 -167 0
-274 -247 -243 -188 -176 -167 0
-275 -248 -243 -191 -176 -167 0
-276 -249 -243 -194 -176 -167 0
-277 -250 -243 -197 -176 -167 0
-278 -251 -243 -200 -176 -167 0
-279 -245 -244 -182 -179 -167 0
-280 -246 -244 -185 -179 -167 0
-281 -247 -244 -188 -179 -167 0
-282 -248 -244 -191 -179 -167 0
-283 -249 -244 -194 -179 -167 0
-284 -250 -244 -197 -179 -167 0
-285 -251 -244 -200 -179 -167 0
-286 -246 -245 -185 -182 -167 0
-287 -247 -245 -188 -182 -167 0
-288 -248 -245 -191 -182 -167 0
-289 -249 -245 -194 -182 -167 0
-290 -250 -245 -197 -182 -167 0
-291 -251 -245 -200 -182 -167 0
-292 -247 -246 -188 -185 -167 0
-293 -248 -246 -191 -185 -167 0
-294 -249 -246 -194 -185 -167 0
-295 -250 -246 -197 -185 -167 0
-296 -251 -246 -200 -185 -167 0
-297 -248 -247 -191 -188 -167 0
-298 -249 -247 -194 -188 -167 0
-299 -250 -247 -197 -188 -167 0
-300 -251 -247 -200 -188 -167 0
-301 -249 -248 -194 -191 -167 0
-302 -250 -248 -197 -191 -167 0
-303 -251 -248 -200 -191 -167 0
-304 -250 -249 -197 -194 -167 0
-305 -251 -249 -200 -194 -167 0
-306 -251 -250 -200 -197 -167 0
-262 -253 -252 -176 -173 -170 0
-263 -254 -252 -179 -173 -170 0
-264 -255 -252 -182 -173 -170 0
-265 -256 -252 -185 -173 -170 0
-266 -257 -252 -188 -173 -170 0
-267 -258 -252 -191 -173 -170 0
-268 -259 -252 -194 -173 -170 0
-269 -260 -252 -197 -173 -170 0
-270 -261 -252 -200 -173 -170 0
-271 -254 -253 -179 -176 -170 0
-272 -255 -253 -182 -176 -170 0
-273 -256 -253 -185 -176 -170 0
-274 -257 -253 -188 -176 -170 0
-275 -258 -253 -191 -176 -170 0
-276 -259 -253 -194 -176 -170 0
-277 -260 -253 -197 -176 -170 0
-278 -261 -253 -200 -176 -170 0
-279 -255 -254 -182 -179 -170 0
-280 -256 -254 -185 -179 -170 0
-281 -257 -254 -188 -179 -170 0
-282 -258 -254 -191 -179 -170 0
-283 -259 -254 -194 -179 -170 0
-284 -260 -254 -197 -179 -170 0
-285 -261 -254 -200 -179 -170 0
-286 -256 -255 -185 -182 -170 0
-287 -257 -255 -188 -182 -170 0
-288 -258 -255 -191 -182 -170 0
-289 -259 -255 -194 -182 -170 0
-290 -260 -255 -197 -182 -170 0
-291 -261 -255 -200 -182 -170 0
-292 -257 -256 -188 -185 -170 0
-293 -258 -256 -191 -185 -170 0
-294 -259 -256 -194 -185 -170 0
-295 -260 -256 -197 -185 -170 0
-296 -261 -256 -200 -185 -170 0
-297 -258 -257 -191 -188 -170 0
-298 -259 -257 -194 -188 -170 0
-299 -260 -257 -197 -188 -170 0
-300 -261 -257 -200 -188 -170 0
-301 -259 -258 -194 -191 -170 0
-302 -260 -258 -197 -191 -170 0
-303 -261 -258 -200 -191 -170 0
-304 -260 -259 -197 -194 -170 0
-305 -261 -259 -200 -194 -170 0
-306 -261 -260 -200 -197 -170 0
-271 -263 -262 -179 -176 -173 0
-272 -264 -262 -182 -176 -173 0
-273 -265 -262 -185 -176 -173 0
-274 -266 -262 -188 -176 -173 0
-275 -267 -262 -191 -176 -173 0
-276 -268 -262 -194 -176 -173 0
-277 -269 -262 -197 -176 -173 0
-278 -270 -262 -200 -176 -173 0
-279 -264 -263 -182 -179 -173 0
-280 -265 -263 -185 -179 -173 0
-281 -266 -263 -188 -179 -173 0
-282 -267 -263 -191 -179 -173 0
-283 -268 -263 -194 -179 -173 0
-284 -269 -263 -197 -179 -173 0
-285 -270 -263 -200 -179 -173 0
-286 -265 -264 -185 -182 -173 0
-287 -266 -264 -188 -182 -173 0
-288 -267 -264 -191 -182 -173 0
-289 -268 -264 -194 -182 -173 0
-290 -269 -264 -197 -182 -173 0
-291 -270 -264 -200 -182 -173 0
-292 -266 -265 -188 -185 -173 0
-293 -267 -265 -191 -185 -173 0
-294 -268 -265 -194 -185 -173 0
-295 -269 -265 -197 -185 -173 0
-296 -270 -265 -200 -185 -173 0
-297 -267 -266 -191 -188 -173 0
-298 -268 -266 -194 -188 -173 0
-299 -269 -266 -197 -188 -173 0
-300 -270 -266 -200 -188 -173 0
-301 -268 -267 -194 -191 -173 0
-302 -269 -267 -197 -191 -173 0
-303 -270 -267 -200 -191 -173 0
-304 -269 -268 -197 -194 -173 0
-305 -270 -268 -200 -194 -173 0
-306 -270 -269 -200 -197 -173 0
-279 -272 -271 -182 -179 -176 0
-280 -273 -271 -185 -179 -176 0
-281 -274 -271 -188 -179 -176 0
-282 -275 -271 -191 -179 -176 0
-283 -276 -271 -194 -179 -176 0
-284 -277 -271 -197 -179 -176 0
-285 -278 -271 -200 -179 -176 0
-286 -273 -272 -185 -182 -176 0
-287 -274 -272 -188 -182 -176 0
-288 -275 -272 -191 -182 -176 0
-289 -276 -272 -194 -182 -176 0
-290 -277 -272 -197 -182 -176 0
-291 -278 -272 -200 -182 -176 0
-292 -274 -273 -188 -185 -176 0
-293 -275 -273 -191 -185 -176 0
-294 -276 -273 -194 -185 -176 0
-295 -277 -273 -197 -185 -176 0
-296 -278 -273 -200 -185 -176 0
-297 -275 -274 -191 -188 -176 0
-298 -276 -274 -194 -188 -176 0
-299 -277 -274 -197 -188 -176 0
-300 -278 -274 -200 -188 -176 0
-301 -276 -275 -194 -191 -176 0
-302 -277 -275 -197 -191 -176 0
-303 -278 -275 -200 -191 -176 0
-304 -277 -276 -197 -194 -176 0
-305 -278 -276 -200 -194 -176 0
-306 -278 -277 -200 -197 -176 0
-286 -280 -279 -185 -182 -179 0
-287 -281 -279 -188 -182 -179 0
-288 -282 -279 -191 -182 -179 0
-289 -283 -279 -194 -182 -179 0
-290 -284 -279 -197 -182 -179 0
-291 -285 -279 -200 -182 -179 0
-292 -281 -280 -188 -185 -179 0
-293 -282 -280 -191 -185 -179 0
-294 -283 -280 -194 -185 -179 0
-295 -284 -280 -197 -185 -179 0
-296 -285 -280 -200 -185 -179 0
-297 -282 -281 -191 -188 -179 0
-298 -283 -281 -194 -188 -179 0
-299 -284 -281 -197 -188 -179 0
-300 -285 -281 -200 -188 -179 0
-301 -283 -282 -194 -191 -179 0
-302 -284 -282 -197 -191 -179 0
-303 -285 -282 -200 -191 -179 0
-304 -284 -283 -197 -194 -179 0
-305 -285 -283 -200 -194 -179 0
-306 -285 -284 -200 -197 -179 0
-292 -287 -286 -188 -185 -182 0
-293 -288 -286 -191 -185 -182 0
-294 -289 -286 -194 -185 -182 0
-295 -290 -286 -197 -185 -182 0
-296 -291 -286 -200 -185 -182 0
-297 -288 -287 -191 -188 -182 0
-298 -289 -287 -194 -188 -182 0
-299 -290 -287 -197 -188 -182 0
-300 -291 -287 -200 -188 -182 0
-301 -289 -288 -194 -191 -182 0
-302 -290 -288 -197 -191 -182 0
-303 -291 -288 -200 -191 -182 0
-304 -290 -289 -197 -194 -182 0
-305 -291 -289 -200 -194 -182 0
-306 -291 -290 -200 -197 -182 0
-297 -293 -292 -191 -188 -185 0
-298 -294 -292 -194 -188 -185 0
-299 -295 -292 -197 -188 -185 0
-300 -296 -292 -200 -188 -185 0
-301 -294 -293 -194 -191 -185 0
-302 -295 -293 -197 -191 -185 0
-303 -296 -293 -200 -191 -185 0
-304 -295 -294 -197 -194 -185 0
-305 -296 -294 -200 -194 -185 0
-306 -296 -295 -200 -197 -185 0
-301 -298 -297 -194 -191 -188 0
-302 -299 -297 -197 -191 -188 0
-303 -300 -297 -200 -191 -188 0
-304 -299 -298 -197 -194 -188 0
-305 -300 -298 -200 -194 -188 0
-306 -300 -299 -200 -197 -188 0
-304 -302 -301 -197 -194 -191 0
-305 -303 -301 -200 -194 -191 0
-306 -303 -302 -200 -197 -191 0
-306 -305 -304 -200 -197 -194 0
-216 -203 -202 -163 -160 -154 0
-217 -204 -202 -166 -160 -154 0
-218 -205 -202 -169 -160 -154 0
-219 -206 -202 -172 -160 -154 0
-220 -207 -202 -175 -160 -154 0
-221 -208 -202 -178 -160 -154 0
-222 -209 -202 -181 -160 -154 0
-223 -210 -202 -184 -160 -154 0
-224 -211 -202 -187 -160 -154 0
-225 -212 -202 -190 -160 -154 0
-226 -213 -202 -193 -160 -154 0
-227 -214 -202 -196 -160 -154 0
-228 -215 -202 -199 -160 -154 0
-229 -204 -203 -166 -163 -154 0
-230 -205 -203 -169 -163 -154 0
-231 -206 -203 -172 -163 -154 0
-232 -207 -203 -175 -163 -154 0
-233 -208 -203 -178 -163 -154 0
-234 -209 -203 -181 -163 -154 0
-235 -210 -203 -184 -163 -154 0
-236 -211 -203 -187 -163 -154 0
-237 -212 -203 -190 -163 -154 0
-238 -213 -203 -193 -163 -154 0
-239 -214 -203 -196 -163 -154 0
-240 -215 -203 -199 -163 -154 0
-241 -205 -204 -169 -166 -154 0
-242 -206 -204 -172 -166 -154 0
-243 -207 -204 -175 -166 -154 0
-244 -208 -204 -178 -166 -154 0
-245 -209 -204 -181 -166 -154 0
-246 -210 -204 -184 -166 -154 0
-247 -211 -204 -187 -166 -154 0
-248 -212 -204 -190 -166 -154 0
-249 -213 -204 -193 -166 -154 0
-250 -214 -204 -196 -166 -154 0
-251 -215 -204 -199 -166 -154 0
-252 -206 -205 -172 -169 -154 0
-253 -207 -205 -175 -169 -154 0
-254 -208 -205 -178 -169 -154 0
-255 -209 -205 -181 -169 -154 0
-256 -210 -205 -184 -169 -154 0
-257 -211 -205 -187 -169 -154 0
-258 -212 -205 -190 -169 -154 0
-259 -213 -205 -193 -169 -154 0
-260 -214 -205 -196 -169 -154 0
-261 -215 -205 -199 -169 -154 0
-262 -207 -206 -175 -172 -154 0
-263 -208 -206 -178 -172 -154 0
-264 -209 -206 -181 -172 -154 0
-265 -210 -206 -184 -172 -154 0
-266 -211 -206 -187 -172 -154 0
-267 -212 -206 -190 -172 -154 0
-268 -213 -206 -193 -172 -154 0
-269 -214 -206 -196 -172 -154 0
-270 -215 -206 -199 -172 -154 0
-271 -208 -207 -178 -175 -154 0
-272 -209 -207 -181 -175 -154 0
-273 -210 -207 -184 -175 -154 0
-274 -211 -207 -187 -175 -154 0
-275 -212 -207 -190 -175 -154 0
-276 -213 -207 -193 -175 -154 0
-277 -214 -207 -196 -175 -154 0
-278 -215 -207 -199 -175 -154 0
-279 -209 -208 -181 -178 -154 0
-280 -210 -208 -184 -178 -154 0
-281 -211 -208 -187 -178 -154 0
-282 -212 -208 -190 -178 -154 0
-283 -213 -208 -193 -178 -154 0
-284 -214 -208 -196 -178 -154 0
-285 -215 -208 -199 -178 -154 0
-286 -210 -209 -184 -181 -154 0
-287 -211 -209 -187 -181 -154 0
-288 -212 -209 -190 -181 -154 0
-289 -213 -209 -193 -181 -154 0
-290 -214 -209 -196 -181 -154 0
-291 -215 -209 -199 -181 -154 0
-292 -211 -210 -187 -184 -154 0
-293 -212 -210 -190 -184 -154 0
-294 -213 -210 -193 -184 -154 0
-295 -214 -210 -196 -184 -154 0
-296 -215 -210 -199 -184 -154 0
-297 -212 -211 -190 -187 -154 0
-298 -213 -211 -193 -187 -154 0
-299 -214 -211 -196 -187 -154 0
-300 -215 -211 -199 -187 -154 0
-301 -213 -212 -193 -190 -154 0
-302 -214 -212 -196 -190 -154 0
-303 -215 -212 -199 -190 -154 0
-304 -214 -213 -196 -193 -154 0
-305 -215 -213 -199 -193 -154 0
-306 -215 -214 -199 -196 -154 0
-229 -217 -216 -166 -163 -160 0
-230 -218 -216 -169 -163 -160 0
-231 -219 -216 -172 -163 -160 0
-232 -220 -216 -175 -163 -160 0
-233 -221 -216 -178 -163 -160 0
-234 -222 -216 -181 -163 -160 0
-235 -223 -216 -184 -163 -160 0
-236 -224 -216 -187 -163 -160 0
-237 -225 -216 -190 -163 -160 0
-238 -226 -216 -193 -163 -160 0
-239 -227 -216 -196 -163 -160 0
-240 -228 -216 -199 -163 -160 0
-241 -218 -217 -169 -166 -160 0
-242 -219 -217 -172 -166 -160 0
-243 -220 -217 -175 -166 -160 0
-244 -221 -217 -178 -166 -160 0
-245 -222 -217 -181 -166 -160 0
-246 -223 -217 -184 -166 -160 0
-247 -224 -217 -187 -166 -160 0
-248 -225 -217 -190 -166 -160 0
-249 -226 -217 -193 -166 -160 0
-250 -227 -217 -196 -166 -160 0
-251 -228 -217 -199 -166 -160 0
-252 -219 -218 -172 -169 -160 0
-253 -220 -218 -175 -169 -160 0
-254 -221 -218 -178 -169 -160 0
-255 -222 -218 -181 -169 -160 0
-256 -223 -218 -184 -169 -160 0
-257 -224 -218 -187 -169 -160 0
-258 -225 -218 -190 -169 -160 0
-259 -226 -218 -193 -169 -160 0
-260 -227 -218 -196 -169 -160 0
-261 -228 -218 -199 -169 -160 0
-262 -220 -219 -175 -172 -160 0
-263 -221 -219 -178 -172 -160 0
-264 -222 -219 -181 -172 -160 0
-265 -223 -219 -184 -172 -160 0
-266 -224 -219 -187 -172 -160 0
-267 -225 -219 -190 -172 -160 0
-268 -226 -219 -193 -172 -160 0
-269 -227 -219 -196 -172 -160 0
-270 -228 -219 -199 -172 -160 0
-271 -221 -220 -178 -175 -160 0
-272 -222 -220 -181 -175 -160 0
-273 -223 -220 -184 -175 -160 0
-274 -224 -220 -187 -175 -160 0
-275 -225 -220 -190 -175 -160 0
-276 -226 -220 -193 -175 -160 0
-277 -227 -220 -196 -175 -160 0
-278 -228 -220 -199 -175 -160 0
-279 -222 -221 -181 -178 -160 0
-280 -223 -221 -184 -178 -160 0
-281 -224 -221 -187 -178 -160 0
-282 -225 -221 -190 -178 -160 0
-283 -226 -221 -193 -178 -160 0
-284 -227 -221 -196 -178 -160 0
-285 -228 -221 -199 -178 -160 0
-286 -223 -222 -184 -181 -160 0
-287 -224 -222 -187 -181 -160 0
-288 -225 -222 -190 -181 -160 0
-289 -226 -222 -193 -181 -160 0
-290 -227 -222 -196 -181 -160 0
-291 -228 -222 -199 -181 -160 0
-292 -224 -223 -187 -184 -160 0
-293 -225 -223 -190 -184 -160 0
-294 -226 -223 -193 -184 -160 0
-295 -227 -223 -196 -184 -160 0
-296 -228 -223 -199 -184 -160 0
-297 -225 -224 -190 -187 -160 0
-298 -226 -224 -193 -187 -160 0
-299 -227 -224 -196 -187 -160 0
-300 -228 -224 -199 -187 -160 0
-301 -226 -225 -193 -190 -160 0
-302 -227 -225 -196 -190 -160 0
-303 -228 -225 -199 -190 -160 0
-304 -227 -226 -196 -193 -160 0
-305 -228 -226 -199 -193 -160 0
-306 -228 -227 -199 -196 -160 0
-241 -230 -229 -169 -166 -163 0
-242 -231 -229 -172 -166 -163 0
-243 -232 -229 -175 -166 -163 0
-244 -233 -229 -178 -166 -163 0
-245 -234 -229 -181 -166 -163 0
-246 -235 -229 -184 -166 -163 0
-247 -236 -229 -187 -166 -163 0
-248 -237 -229 -190 -166 -163 0
-249 -238 -229 -193 -166 -163 0
-250 -239 -229 -196 -166 -163 0
-251 -240 -229 -199 -166 -163 0
-252 -231 -230 -172 -169 -163 0
-253 -232 -230 -175 -169 -163 0
-254 -233 -230 -178 -169 -163 0
-255 -234 -230 -181 -169 -163 0
-256 -235 -230 -184 -169 -163 0
-257 -236 -230 -187 -169 -163 0
-258 -237 -230 -190 -169 -163 0
-259 -238 -230 -193 -169 -163 0
-260 -239 -230 -196 -169 -163 0
-261 -240 -230 -199 -169 -163 0
-262 -232 -231 -175 -172 -163 0
-263 -233 -231 -178 -172 -163 0
-264 -234 -231 -181 -172 -163 0
-265 -235 -231 -184 -172 -163 0
-266 -236 -231 -187 -172 -163 0
-267 -237 -231 -190 -172 -163 0
-268 -238 -231 -193 -172 -163 0
-269 -239 -231 -196 -172 -163 0
-270 -240 -231 -199 -172 -163 0
-271 -233 -232 -178 -175 -163 0
-272 -234 -232 -181 -175 -163 0
-273 -235 -232 -184 -175 -163 0
-274 -236 -232 -187 -175 -163 0
-275 -237 -232 -190 -175 -163 0
-276 -238 -232 -193 -175 -163 0
-277 -239 -232 -196 -175 -163 0
-278 -240 -232 -199 -175 -163 0
-279 -234 -233 -181 -178 -163 0
-280 -235 -233 -184 -178 -163 0
-281 -236 -233 -187 -178 -163 0
-282 -237 -233 -190 -178 -163 0
-283 -238 -233 -193 -178 -163 0
-284 -239 -233 -196 -178 -163 0
-285 -240 -233 -199 -178 -163 0
-286 -235 -234 -184 -181 -163 0
-287 -236 -234 -187 -181 -163 0
-288 -237 -234 -190 -181 -163 0
-289 -238 -234 -193 -181 -163 0
-290 -239 -234 -196 -181 -163 0
-291 -240 -234 -199 -181 -163 0
-292 -236 -235 -187 -184 -163 0
-293 -237 -235 -190 -184 -163 0
-294 -238 -235 -193 -184 -163 0
-295 -239 -235 -196 -184 -163 0
-296 -240 -235 -199 -184 -163 0
-297 -237 -236 -190 -187 -163 0
-298 -238 -236 -193 -187 -163 0
-299 -239 -236 -196 -187 -163 0
-300 -240 -236 -199 -187 -163 0
-301 -238 -237 -193 -190 -163 0
-302 -239 -237 -196 -190 -163 0
-303 -240 -237 -199 -190 -163 0
-304 -239 -238 -196 -193 -163 0
-305 -240 -238 -199 -193 -163 0
-306 -240 -239 -199 -196 -163 0
-252 -242 -241 -172 -169 -166 0
-253 -243 -241 -175 -169 -166 0
-254 -244 -241 -178 -169 -166 0
-255 -245 -241 -181 -169 -166 0
-256 -246 -241 -184 -169 -166 0
-257 -247 -241 -187 -169 -166 0
-258 -248 -241 -190 -169 -166 0
-259 -249 -241 -193 -169 -166 0
-260 -250 -241 -196 -169 -166 0
-261 -251 -241 -199 -169 -166 0
-262 -243 -242 -175 -172 -166 0
-263 -244 -242 -178 -172 -166 0
-264 -245 -242 -181 -172 -166 0
-265 -246 -242 -184 -172 -166 0
-266 -247 -242 -187 -172 -166 0
-267 -248 -242 -190 -172 -166 0
-268 -249 -242 -193 -172 -166 0
-269 -250 -242 -196 -172 -166 0
-270 -251 -242 -199 -172 -166 0
-271 -244 -243 -178 -175 -166 0
-272 -245 -243 -181 -175 -166 0
-273 -246 -243 -184 -175 -166 0
-274 -247 -243 -187 -175 -166 0
-275 -248 -243 -190 -175 -166 0
-276 -249 -243 -193 -175 -166 0
-277 -250 -243 -196 -175 -166 0
-278 -251 -243 -199 -175 -166 0
-279 -245 -244 -181 -178 -166 0
-280 -246 -244 -184 -178 -166 0
-281 -247 -244 -187 -178 -166 0
-282 -248 -244 -190 -178 -166 0
-283 -249 -244 -193 -178 -166 0
-284 -250 -244 -196 -178 -166 0
-285 -251 -244 -199 -178 -166 0
-286 -246 -245 -184 -181 -166 0
-287 -247 -245 -187 -181 -166 0
-288 -248 -245 -190 -181 -166 0
-289 -249 -245 -193 -181 -166 0
-290 -250 -245 -196 -181 -166 0
-291 -251 -245 -199 -181 -166 0
-292 -247 -246 -187 -184 -166 0
-293 -248 -246 -190 -184 -166 0
-294 -249 -246 -193 -184 -166 0
-295 -250 -246 -196 -184 -166 0
-296 -251 -246 -199 -184 -166 0
-297 -248 -247 -190 -187 -166 0
-298 -249 -247 -193 -187 -166 0
-299 -250 -247 -196 -187 -166 0
-300 -251 -247 -199 -187 -166 0
-301 -249 -248 -193 -190 -166 0
-302 -250 -248 -196 -190 -166 0
-303 -251 -248 -199 -190 -166 0
-304 -250 -249 -196 -193 -166 0
-305 -251 -249 -199 -193 -166 0
-306 -251 -250 -199 -196 -166 0
-262 -253 -252 -175 -172 -169 0
-263 -254 -252 -178 -172 -169 0
-264 -255 -252 -181 -172 -169 0
-265 -256 -252 -184 -172 -169 0
-266 -257 -252 -187 -172 -169 0
-267 -258 -252 -190 -172 -169 0
-268 -259 -252 -193 -172 -169 0
-269 -260 -252 -196 -172 -169 0
-270 -261 -252 -199 -172 -169 0
-271 -254 -253 -178 -175 -169 0
-272 -255 -253 -181 -175 -169 0
-273 -256 -253 -184 -175 -169 0
-274 -257 -253 -187 -175 -169 0
-275 -258 -253 -190 -175 -169 0
-276 -259 -253 -193 -175 -169 0
-277 -260 -253 -196 -175 -169 0
-278 -261 -253 -199 -175 -169 0
-279 -255 -254 -181 -178 -169 0
-280 -256 -254 -184 -178 -169 0
-281 -257 -254 -187 -178 -169 0
-282 -258 -254 -190 -178 -169 0
-283 -259 -254 -193 -178 -169 0
-284 -260 -254 -196 -178 -169 0
-285 -261 -254 -199 -178 -169 0
-286 -256 -255 -184 -181 -169 0
-287 -257 -255 -187 -181 -169 0
-288 -258 -255 -190 -181 -169 0
-289 -259 -255 -193 -181 -169 0
-290 -260 -255 -196 -181 -169 0
-291 -261 -255 -199 -181 -169 0
-292 -257 -256 -187 -184 -169 0
-293 -258 -256 -190 -184 -169 0
-294 -259 -256 -193 -184 -169 0
-295 -260 -256 -196 -184 -169 0
-296 -261 -256 -199 -184 -169 0
-297 -258 -257 -190 -187 -169 0
-298 -259 -257 -193 -187 -169 0
-299 -260 -257 -196 -187 -169 0
-300 -261 -257 -199 -187 -169 0
-301 -259 -258 -193 -190 -169 0
-302 -260 -258 -196 -190 -169 0
-303 -261 -258 -199 -190 -169 0
-304 -260 -259 -196 -193 -169 0
-305 -261 -259 -199 -193 -169 0
-306 -261 -260 -199 -196 -169 0
-271 -263 -262 -178 -175 -172 0
-272 -264 -262 -181 -175 -172 0
-273 -265 -262 -184 -175 -172 0
-274 -266 -262 -187 -175 -172 0
-275 -267 -262 -190 -175 -172 0
-276 -268 -262 -193 -175 -172 0
-277 -269 -262 -196 -175 -172 0
-278 -270 -262 -199 -175 -172 0
-279 -264 -263 -181 -178 -172 0
-280 -265 -263 -184 -178 -172 0
-281 -266 -263 -187 -178 -172 0
-282 -267 -263 -190 -178 -172 0
-283 -268 -263 -193 -178 -172 0
-284 -269 -263 -196 -178 -172 0
-285 -270 -263 -199 -178 -172 0
-286 -265 -264 -184 -181 -172 0
-287 -266 -264 -187 -181 -172 0
-288 -267 -264 -190 -181 -172 0
-289 -268 -264 -193 -181 -172 0
-290 -269 -264 -196 -181 -172 0
-291 -270 -264 -199 -181 -172 0
-292 -266 -265 -187 -184 -172 0
-293 -267 -265 -190 -184 -172 0
-294 -268 -265 -193 -184 -172 0
-295 -269 -265 -196 -184 -172 0
-296 -270 -265 -199 -184 -172 0
-297 -267 -266 -190 -187 -172 0
-298 -268 -266 -193 -187 -172 0
-299 -269 -266 -196 -187 -172 0
-300 -270 -266 -199 -187 -172 0
-301 -268 -267 -193 -190 -172 0
-302 -269 -267 -196 -190 -172 0
-303 -270 -267 -199 -190 -172 0
-304 -269 -268 -196 -193 -172 0
-305 -270 -268 -199 -193 -172 0
-306 -270 -269 -199 -196 -172 0
-279 -272 -271 -181 -178 -175 0
-280 -273 -271 -184 -178 -175 0
-281 -274 -271 -187 -178 -175 0
-282 -275 -271 -190 -178 -175 0
-283 -276 -271 -193 -178 -175 0
-284 -277 -271 -196 -178 -175 0
-285 -278 -271 -199 -178 -175 0
-286 -273 -272 -184 -181 -175 0
-287 -274 -272 -187 -181 -175 0
-288 -275 -272 -190 -181 -175 0
-289 -276 -272 -193 -181 -175 0
-290 -277 -272 -196 -181 -175 0
-291 -278 -272 -199 -181 -175 0
-292 -274 -273 -187 -184 -175 0
-293 -275 -273 -190 -184 -175 0
-294 -276 -273 -193 -184 -175 0
-295 -277 -273 -196 -184 -175 0
-296 -278 -273 -199 -184 -175 0
-297 -275 -274 -190 -187 -175 0
-298 -276 -274 -193 -187 -175 0
-299 -277 -274 -196 -187 -175 0
-300 -278 -274 -199 -187 -175 0
-301 -276 -275 -193 -190 -175 0
-302 -277 -275 -196 -190 -175 0
-303 -278 -275 -199 -190 -175 0
-304 -277 -276 -196 -193 -175 0
-305 -278 -276 -199 -193 -175 0
-306 -278 -277 -199 -196 -175 0
-286 -280 -279 -184 -181 -178 0
-287 -281 -279 -187 -181 -178 0
-288 -282 -279 -190 -181 -178 0
-289 -283 -279 -193 -181 -178 0
-290 -284 -279 -196 -181 -178 0
-291 -285 -279 -199 -181 -178 0
-292 -281 -280 -187 -184 -178 0
-293 -282 -280 -190 -184 -178 0
-294 -283 -280 -193 -184 -178 0
-295 -284 -280 -196 -184 -178 0
-296 -285 -280 -199 -184 -178 0
-297 -282 -281 -190 -187 -178 0
-298 -283 -281 -193 -187 -178 0
-299 -284 -281 -196 -187 -178 0
-300 -285 -281 -199 -187 -178 0
-301 -283 -282 -193 -190 -178 0
-302 -284 -282 -196 -190 -178 0
-303 -285 -282 -199 -190 -178 0
-304 -284 -283 -196 -193 -178 0
-305 -285 -283 -199 -193 -178 0
-306 -285 -284 -199 -196 -178 0
-292 -287 -286 -187 -184 -181 0
-293 -288 -286 -190 -184 -181 0
-294 -289 -286 -193 -184 -181 0
-295 -290 -286 -196 -184 -181 0
-296 -291 -286 -199 -184 -181 0
-297 -288 -287 -190 -187 -181 0
-298 -289 -287 -193 -187 -181 0
-299 -290 -287 -196 -187 -181 0
-300 -291 -287 -199 -187 -181 0
-301 -289 -288 -193 -190 -181 0
-302 -290 -288 -196 -190 -181 0
-303 -291 -288 -199 -190 -181 0
-304 -290 -289 -196 -193 -181 0
-305 -291 -289 -199 -193 -181 0
-306 -291 -290 -199 -196 -181 0
-297 -293 -292 -190 -187 -184 0
-298 -294 -292 -193 -187 -184 0
-299 -295 -292 -196 -187 -184 0
-300 -296 -292 -199 -187 -184 0
-301 -294 -293 -193 -190 -184 0
-302 -295 -293 -196 -190 -184 0
-303 -296 -293 -199 -190 -184 0
-304 -295 -294 -196 -193 -184 0
-305 -296 -294 -199 -193 -184 0
-306 -296 -295 -199 -196 -184 0
-301 -298 -297 -193 -190 -187 0
-302 -299 -297 -196 -190 -187 0
-303 -300 -297 -199 -190 -187 0
-304 -299 -298 -196 -193 -187 0
-305 -300 -298 -199 -193 -187 0
-306 -300 -299 -199 -196 -187 0
-304 -302 -301 -196 -193 -190 0
-305 -303 -301 -199 -193 -190 0
-306 -303 -302 -199 -196 -190 0
-306 -305 -304 -199 -196 -193 0
-229 -217 -216 -204 -203 -202 0
-230 -218 -216 -205 -203 -202 0
-231 -219 -216 -206 -203 -202 0
-232 -220 -216 -207 -203 -202 0
-233 -221 -216 -208 -203 -202 0
-234 -222 -216 -209 -203 -202 0
-235 -223 -216 -210 -203 -202 0
-236 -224 -216 -211 -203 -202 0
-237 -225 -216 -212 -203 -202 0
-238 -226 -216 -213 -203 -202 0
-239 -227 -216 -214 -203 -202 0
-240 -228 -216 -215 -203 -202 0
-241 -218 -217 -205 -204 -202 0
-242 -219 -217 -206 -204 -202 0
-243 -220 -217 -207 -204 -202 0
-244 -221 -217 -208 -204 -202 0
-245 -222 -217 -209 -204 -202 0
-246 -223 -217 -210 -204 -202 0
-247 -224 -217 -211 -204 -202 0
-248 -225 -217 -212 -204 -202 0
-249 -226 -217 -213 -204 -202 0
-250 -227 -217 -214 -204 -202 0
-251 -228 -217 -215 -204 -202 0
-252 -219 -218 -206 -205 -202 0
-253 -220 -218 -207 -205 -202 0
-254 -221 -218 -208 -205 -202 0
-255 -222 -218 -209 -205 -202 0
-256 -223 -218 -210 -205 -202 0
-257 -224 -218 -211 -205 -202 0
-258 -225 -218 -212 -205 -202 0
-259 -226 -218 -213 -205 -202 0
-260 -227 -218 -214 -205 -202 0
-261 -228 -218 -215 -205 -202 0
-262 -220 -219 -207 -206 -202 0
-263 -221 -219 -208 -206 -202 0
-264 -222 -219 -209 -206 -202 0
-265 -223 -219 -210 -206 -202 0
-266 -224 -219 -211 -206 -202 0
-267 -225 -219 -212 -206 -202 0
-268 -226 -219 -213 -206 -202 0
-269 -227 -219 -214 -206 -202 0
-270 -228 -219 -215 -206 -202 0
-271 -221 -220 -208 -207 -202 0
-272 -222 -220 -209 -207 -202 0
-273 -223 -220 -210 -207 -202 0
-274 -224 -220 -211 -207 -202 0
-275 -225 -220 -212 -207 -202 0
-276 -226 -220 -213 -207 -202 0
-277 -227 -220 -214 -207 -202 0
-278 -228 -220 -215 -207 -202 0
-279 -222 -221 -209 -208 -202 0
-280 -223 -221 -210 -208 -202 0
-281 -224 -221 -211 -208 -202 0
-282 -225 -221 -212 -208 -202 0
-283 -226 -221 -213 -208 -202 0
-284 -227 -221 -214 -208 -202 0
-285 -228 -221 -215 -208 -202 0
-286 -223 -222 -210 -209 -202 0
-287 -224 -222 -211 -209 -202 0
-288 -225 -222 -212 -209 -202 0
-289 -226 -222 -213 -209 -202 0
-290 -227 -222 -214 -209 -202 0
-291 -228 -222 -215 -209 -202 0
-292 -224 -223 -211 -210 -202 0
-293 -225 -223 -212 -210 -202 0
-294 -226 -223 -213 -210 -202 0
-295 -227 -223 -214 -210 -202 0
-296 -228 -223 -215 -210 -202 0
-297 -225 -224 -212 -211 -202 0
-298 -226 -224 -213 -211 -202 0
-299 -227 -224 -214 -211 -202 0
-300 -228 -224 -215 -211 -202 0
-301 -226 -225 -213 -212 -202 0
-302 -227 -225 -214 -212 -202 0
-303 -228 -225 -215 -212 -202 0
-304 -227 -226 -214 -213 -202 0
-305 -228 -226 -215 -213 -202 0
-306 -228 -227 -215 -214 -202 0
-241 -230 -229 -205 -204 -203 0
-242 -231 -229 -206 -204 -203 0
-243 -232 -229 -207 -204 -203 0
-244 -233 -229 -208 -204 -203 0
-245 -234 -229 -209 -204 -203 0
-246 -235 -229 -210 -204 -203 0
-247 -236 -229 -211 -204 -203 0
-248 -237 -229 -212 -204 -203 0
-249 -238 -229 -213 -204 -203 0
-250 -239 -229 -214 -204 -203 0
-251 -240 -229 -215 -204 -203 0
-252 -231 -230 -206 -205 -203 0
-253 -232 -230 -207 -205 -203 0
-254 -233 -230 -208 -205 -203 0
-255 -234 -230 -209 -205 -203 0
-256 -235 -230 -210 -205 -203 0
-257 -236 -230 -211 -205 -203 0
-258 -237 -230 -212 -205 -203 0
-259 -238 -230 -213 -205 -203 0
-260 -239 -230 -214 -205 -203 0
-261 -240 -230 -215 -205 -203 0
-262 -232 -231 -207 -206 -203 0
-263 -233 -231 -208 -206 -203 0
-264 -234 -231 -209 -206 -203 0
-265 -235 -231 -210 -206 -203 0
-266 -236 -231 -211 -206 -203 0
-267 -237 -231 -212 -206 -203 0
-268 -238 -231 -213 -206 -203 0
-269 -239 -231 -214 -206 -203 0
-270 -240 -231 -215 -206 -203 0
-271 -233 -232 -208 -207 -203 0
-272 -234 -232 -209 -207 -203 0
-273 -235 -232 -210 -207 -203 0
-274 -236 -232 -211 -207 -203 0
-275 -237 -232 -212 -207 -203 0
-276 -238 -232 -213 -207 -203 0
-277 -239 -232 -214 -207 -203 0
-278 -240 -232 -215 -207 -203 0
-279 -234 -233 -209 -208 -203 0
-280 -235 -233 -210 -208 -203 0
-281 -236 -233 -211 -208 -203 0
-282 -237 -233 -212 -208 -203 0
-283 -238 -233 -213 -208 -203 0
-284 -239 -233 -214 -208 -203 0
-285 -240 -233 -215 -208 -203 0
-286 -235 -234 -210 -209 -203 0
-287 -236 -234 -211 -209 -203 0
-288 -237 -234 -212 -209 -203 0
-289 -238 -234 -213 -209 -203 0
-290 -239 -234 -214 -209 -203 0
-291 -240 -234 -215 -209 -203 0
-292 -236 -235 -211 -210 -203 0
-293 -237 -235 -212 -210 -203 0
-294 -238 -235 -213 -210 -203 0
-295 -239 -235 -214 -210 -203 0
-296 -240 -235 -215 -210 -203 0
-297 -237 -236 -212 -211 -203 0
-298 -238 -236 -213 -211 -203 0
-299 -239 -236 -214 -211 -203 0
-300 -240 -236 -215 -211 -203 0
-301 -238 -237 -213 -212 -203 0
-302 -239 -237 -214 -212 -203 0
-303 -240 -237 -215 -212 -203 0
-304 -239 -238 -214 -213 -203 0
-305 -240 -238 -215 -213 -203 0
-306 -240 -239 -215 -214 -203 0
-252 -242 -241 -206 -205 -204 0
-253 -243 -241 -207 -205 -204 0
-254 -244 -241 -208 -205 -204 0
-255 -245 -241 -209 -205 -204 0
-256 -246 -241 -210 -205 -204 0
-257 -247 -241 -211 -205 -204 0
-258 -248 -241 -212 -205 -204 0
-259 -249 -241 -213 -205 -204 0
-260 -250 -241 -214 -205 -204 0
-261 -251 -241 -215 -205 -204 0
-262 -243 -242 -207 -206 -204 0
-263 -244 -242 -208 -206 -204 0
-264 -245 -242 -209 -206 -204 0
-265 -246 -242 -210 -206 -204 0
-266 -247 -242 -211 -206 -204 0
-267 -248 -242 -212 -206 -204 0
-268 -249 -242 -213 -206 -204 0
-269 -250 -242 -214 -206 -204 0
-270 -251 -242 -215 -206 -204 0
-271 -244 -243 -208 -207 -204 0
-272 -245 -243 -209 -207 -204 0
-273 -246 -243 -210 -207 -204 0
-274 -247 -243 -211 -207 -204 0
-275 -248 -243 -212 -207 -204 0
-276 -249 -243 -213 -207 -204 0
-277 -250 -243 -214 -207 -204 0
-278 -251 -243 -215 -207 -204 0
-279 -245 -244 -209 -208 -204 0
-280 -246 -244 -210 -208 -204 0
-281 -247 -244 -211 -208 -204 0
-282 -248 -244 -212 -208 -204 0
-283 -249 -244 -213 -208 -204 0
-284 -250 -244 -214 -208 -204 0
-285 -251 -244 -215 -208 -204 0
-286 -246 -245 -210 -209 -204 0
-287 -247 -245 -211 -209 -204 0
-288 -248 -245 -212 -209 -204 0
-289 -249 -245 -213 -209 -204 0
-290 -250 -245 -214 -209 -204 0
-291 -251 -245 -215 -209 -204 0
-292 -247 -246 -211 -210 -204 0
-293 -248 -246 -212 -210 -204 0
-294 -249 -246 -213 -210 -204 0
-295 -250 -246 -214 -210 -204 0
-296 -251 -246 -215 -210 -204 0
-297 -248 -247 -212 -211 -204 0
-298 -249 -247 -213 -211 -204 0
-299 -250 -247 -214 -211 -204 0
-300 -251 -247 -215 -211 -204 0
-301 -249 -248 -213 -212 -204 0
-302 -250 -248 -214 -212 -204 0
-303 -251 -248 -215 -212 -204 0
-304 -250 -249 -214 -213 -204 0
-305 -251 -249 -215 -213 -204 0
-306 -251 -250 -215 -214 -204 0
-262 -253 -252 -207 -206 -205 0
-263 -254 -252 -208 -206 -205 0
-264 -255 -252 -209 -206 -205 0
-265 -256 -252 -210 -206 -205 0
-266 -257 -252 -211 -206 -205 0
-267 -258 -252 -212 -206 -205 0
-268 -259 -252 -213 -206 -205 0
-269 -260 -252 -214 -206 -205 0
-270 -261 -252 -215 -206 -205 0
-271 -254 -253 -208 -207 -205 0
-272 -255 -253 -209 -207 -205 0
-273 -256 -253 -210 -207 -205 0
-274 -257 -253 -211 -207 -205 0
-275 -258 -253 -212 -207 -205 0
-276 -259 -253 -213 -207 -205 0
-277 -260 -253 -214 -207 -205 0
-278 -261 -253 -215 -207 -205 0
-279 -255 -254 -209 -208 -205 0
-280 -256 -254 -210 -208 -205 0
-281 -257 -254 -211 -208 -205 0
-282 -258 -254 -212 -208 -205 0
-283 -259 -254 -213 -208 -205 0
-284 -260 -254 -214 -208 -205 0
-285 -261 -254 -215 -208 -205 0
-286 -256 -255 -210 -209 -205 0
-287 -257 -255 -211 -209 -205 0
-288 -258 -255 -212 -209 -205 0
-289 -259 -255 -213 -209 -205 0
-290 -260 -255 -214 -209 -205 0
-291 -261 -255 -215 -209 -205 0
-292 -257 -256 -211 -210 -205 0
-293 -258 -256 -212 -210 -205 0
-294 -259 -256 -213 -210 -205 0
-295 -260 -256 -214 -210 -205 0
-296 -261 -256 -215 -210 -205 0
-297 -258 -257 -212 -211 -205 0
-298 -259 -257 -213 -211 -205 0
-299 -260 -257 -214 -211 -205 0
-300 -261 -257 -215 -211 -205 0
-301 -259 -258 -213 -212 -205 0
-302 -260 -258 -214 -212 -205 0
-303 -261 -258 -215 -212 -205 0
-304 -260 -259 -214 -213 -205 0
-305 -261 -259 -215 -213 -205 0
-306 -261 -260 -215 -214 -205 0
-271 -263 -262 -208 -207 -206 0
-272 -264 -262 -209 -207 -206 0
-273 -265 -262 -210 -207 -206 0
-274 -266 -262 -211 -207 -206 0
-275 -267 -262 -212 -207 -206 0
-276 -268 -262 -213 -207 -206 0
-277 -269 -262 -214 -207 -206 0
-278 -270 -262 -215 -207 -206 0
-279 -264 -263 -209 -208 -206 0
-280 -265 -263 -210 -208 -206 0
-281 -266 -263 -211 -208 -206 0
-282 -267 -263 -212 -208 -206 0
-283 -268 -263 -213 -208 -206 0
-284 -269 -263 -214 -208 -206 0
-285 -270 -263 -215 -208 -206 0
-286 -265 -264 -210 -209 -206 0
-287 -266 -264 -211 -209 -206 0
-288 -267 -264 -212 -209 -206 0
-289 -268 -264 -213 -209 -206 0
-290 -269 -264 -214 -209 -206 0
-291 -270 -264 -215 -209 -206 0
-292 -266 -265 -211 -210 -206 0
-293 -267 -265 -212 -210 -206 0
-294 -268 -265 -213 -210 -206 0
-295 -269 -265 -214 -210 -206 0
-296 -270 -265 -215 -210 -206 0
-297 -267 -266 -212 -211 -206 0
-298 -268 -266 -213 -211 -206 0
-299 -269 -266 -214 -211 -206 0
-300 -270 -266 -215 -211 -206 0
-301 -268 -267 -213 -212 -206 0
-302 -269 -267 -214 -212 -206 0
-303 -270 -267 -215 -212 -206 0
-304 -269 -268 -214 -213 -206 0
-305 -270 -268 -215 -213 -206 0
-306 -270 -269 -215 -214 -206 0
-279 -272 -271 -209 -208 -207 0
-280 -273 -271 -210 -208 -207 0
-281 -274 -271 -211 -208 -207 0
-282 -275 -271 -212 -208 -207 0
-283 -276 -271 -213 -208 -207 0
-284 -277 -271 -214 -208 -207 0
-285 -278 -271 -215 -208 -207 0
-286 -273 -272 -210 -209 -207 0
-287 -274 -272 -211 -209 -207 0
-288 -275 -272 -212 -209 -207 0
-289 -276 -272 -213 -209 -207 0
-290 -277 -272 -214 -209 -207 0
-291 -278 -272 -215 -209 -207 0
-292 -274 -273 -211 -210 -207 0
-293 -275 -273 -212 -210 -207 0
-294 -276 -273 -213 -210 -207 0
-295 -277 -273 -214 -210 -207 0
-296 -278 -273 -215 -210 -207 0
-297 -275 -274 -212 -211 -207 0
-298 -276 -274 -213 -211 -207 0
-299 -277 -274 -214 -211 -207 0
-300 -278 -274 -215 -211 -207 0
-301 -276 -275 -213 -212 -207 0
-302 -277 -275 -214 -212 -207 0
-303 -278 -275 -215 -212 -207 0
-304 -277 -276 -214 -213 -207 0
-305 -278 -276 -215 -213 -207 0
-306 -278 -277 -215 -214 -207 0
-286 -280 -279 -210 -209 -208 0
-287 -281 -279 -211 -209 -208 0
-288 -282 -279 -212 -209 -208 0
-289 -283 -279 -213 -209 -208 0
-290 -284 -279 -214 -209 -208 0
-291 -285 -279 -215 -209 -208 0
-292 -281 -280 -211 -210 -208 0
-293 -282 -280 -212 -210 -208 0
-294 -283 -280 -213 -210 -208 0
-295 -284 -280 -214 -210 -208 0
-296 -285 -280 -215 -210 -208 0
-297 -282 -281 -212 -211 -208 0
-298 -283 -281 -213 -211 -208 0
-299 -284 -281 -214 -211 -208 0
-300 -285 -281 -215 -211 -208 0
-301 -283 -282 -213 -212 -208 0
-302 -284 -282 -214 -212 -208 0
-303 -285 -282 -215 -212 -208 0
-304 -284 -283 -214 -213 -208 0
-305 -285 -283 -215 -213 -208 0
-306 -285 -284 -215 -214 -208 0
-292 -287 -286 -211 -210 -209 0
-293 -288 -286 -212 -210 -209 0
-294 -289 -286 -213 -210 -209 0
-295 -290 -286 -214 -210 -209 0
-296 -291 -286 -215 -210 -209 0
-297 -288 -287 -212 -211 -209 0
-298 -289 -287 -213 -211 -209 0
-299 -290 -287 -214 -211 -209 0
-300 -291 -287 -215 -211 -209 0
-301 -289 -288 -213 -212 -209 0
-302 -290 -288 -214 -212 -209 0
-303 -291 -288 -215 -212 -209 0
-304 -290 -289 -214 -213 -209 0
-305 -291 -289 -215 -213 -209 0
-306 -291 -290 -215 -214 -209 0
-297 -293 -292 -212 -211 -210 0
-298 -294 -292 -213 -211 -210 0
-299 -295 -292 -214 -211 -210 0
-300 -296 -292 -215 -211 -210 0
-301 -294 -293 -213 -212 -210 0
-302 -295 -293 -214 -212 -210 0
-303 -296 -293 -215 -212 -210 0
-304 -295 -294 -214 -213 -210 0
-305 -296 -294 -215 -213 -210 0
-306 -296 -295 -215 -214 -210 0
-301 -298 -297 -213 -212 -211 0
-302 -299 -297 -214 -212 -211 0
-303 -300 -297 -215 -212 -211 0
-304 -299 -298 -214 -213 -211 0
-305 -300 -298 -215 -213 -211 0
-306 -300 -299 -215 -214 -211 0
-304 -302 -301 -214 -213 -212 0
-305 -303 -301 -215 -213 -212 0
-306 -303 -302 -215 -214 -212 0
-306 -305 -304 -215 -214 -213 0
-241 -230 -229 -218 -217 -216 0
-242 -231 -229 -219 -217 -216 0
-243 -232 -229 -220 -217 -216 0
-244 -233 -229 -221 -217 -216 0
-245 -234 -229 -222 -217 -216 0
-246 -235 -229 -223 -217 -216 0
-247 -236 -229 -224 -217 -216 0
-248 -237 -229 -225 -217 -216 0
-249 -238 -229 -226 -217 -216 0
-250 -239 -229 -227 -217 -216 0
-251 -240 -229 -228 -217 -216 0
-252 -231 -230 -219 -218 -216 0
-253 -232 -230 -220 -218 -216 0
-254 -233 -230 -221 -218 -216 0
-255 -234 -230 -222 -218 -216 0
-256 -235 -230 -223 -218 -216 0
-257 -236 -230 -224 -218 -216 0
-258 -237 -230 -225 -218 -216 0
-259 -238 -230 -226 -218 -216 0
-260 -239 -230 -227 -218 -216 0
-261 -240 -230 -228 -218 -216 0
-262 -232 -231 -220 -219 -216 0
-263 -233 -231 -221 -219 -216 0
-264 -234 -231 -222 -219 -216 0
-265 -235 -231 -223 -219 -216 0
-266 -236 -231 -224 -219 -216 0
-267 -237 -231 -225 -219 -216 0
-268 -238 -231 -226 -219 -216 0
-269 -239 -231 -227 -219 -216 0
-270 -240 -231 -228 -219 -216 0
-271 -233 -232 -221 -220 -216 0
-272 -234 -232 -222 -220 -216 0
-273 -235 -232 -223 -220 -216 0
-274 -236 -232 -224 -220 -216 0
-275 -237 -232 -225 -220 -216 0
-276 -238 -232 -226 -220 -216 0
-277 -239 -232 -227 -220 -216 0
-278 -240 -232 -228 -220 -216 0
-279 -234 -233 -222 -221 -216 0
-280 -235 -233 -223 -221 -216 0
-281 -236 -233 -224 -221 -216 0
-282 -237 -233 -225 -221 -216 0
-283 -238 -233 -226 -221 -216 0
-284 -239 -233 -227 -221 -216 0
-285 -240 -233 -228 -221 -216 0
-286 -235 -234 -223 -222 -216 0
-287 -236 -234 -224 -222 -216 0
-288 -237 -234 -225 -222 -216 0
-289 -238 -234 -226 -222 -216 0
-290 -239 -234 -227 -222 -216 0
-291 -240 -234 -228 -222 -216 0
-292 -236 -235 -224 -223 -216 0
-293 -237 -235 -225 -223 -216 0
-294 -238 -235 -226 -223 -216 0
-295 -239 -235 -227 -223 -216 0
-296 -240 -235 -228 -223 -216 0
-297 -237 -236 -225 -224 -216 0
-298 -238 -236 -226 -224 -216 0
-299 -239 -236 -227 -224 -216 0
-300 -240 -236 -228 -224 -216 0
-301 -238 -237 -226 -225 -216 0
-302 -239 -237 -227 -225 -216 0
-303 -240 -237 -228 -225 -216 0
-304 -239 -238 -227 -226 -216 0
-305 -240 -238 -228 -226 -216 0
-306 -240 -239 -228 -227 -216 0
-252 -242 -241 -219 -218 -217 0
-253 -243 -241 -220 -218 -217 0
-254 -244 -241 -221 -218 -217 0
-255 -245 -241 -222 -218 -217 0
-256 -246 -241 -223 -218 -217 0
-257 -247 -241 -224 -218 -217 0
-258 -248 -241 -225 -218 -217 0
-259 -249 -241 -226 -218 -217 0
-260 -250 -241 -227 -218 -217 0
-261 -251 -241 -228 -218 -217 0
-262 -243 -242 -220 -219 -217 0
-263 -244 -242 -221 -219 -217 0
-264 -245 -242 -222 -219 -217 0
-265 -246 -242 -223 -219 -217 0
-266 -247 -242 -224 -219 -217 0
-267 -248 -242 -225 -219 -217 0
-268 -249 -242 -226 -219 -217 0
-269 -250 -242 -227 -219 -217 0
-270 -251 -242 -228 -219 -217 0
-271 -244 -243 -221 -220 -217 0
-272 -245 -243 -222 -220 -217 0
-273 -246 -243 -223 -220 -217 0
-274 -247 -243 -224 -220 -217 0
-275 -248 -243 -225 -220 -217 0
-276 -249 -243 -226 -220 -217 0
-277 -250 -243 -227 -220 -217 0
-278 -251 -243 -228 -220 -217 0
-279 -245 -244 -222 -221 -217 0
-280 -246 -244 -223 -221 -217 0
-281 -247 -244 -224 -221 -217 0
-282 -248 -244 -225 -221 -217 0
-283 -249 -244 -226 -221 -217 0
-284 -250 -244 -227 -221 -217 0
-285 -251 -244 -228 -221 -217 0
-286 -246 -245 -223 -222 -217 0
-287 -247 -245 -224 -222 -217 0
-288 -248 -245 -225 -222 -217 0
-289 -249 -245 -226 -222 -217 0
-290 -250 -245 -227 -222 -217 0
-291 -251 -245 -228 -222 -217 0
-292 -247 -246 -224 -223 -217 0
-293 -248 -246 -225 -223 -217 0
-294 -249 -246 -226 -223 -217 0
-295 -250 -246 -227 -223 -217 0
-296 -251 -246 -228 -223 -217 0
-297 -248 -247 -225 -224 -217 0
-298 -249 -247 -226 -224 -217 0
-299 -250 -247 -227 -224 -217 0
-300 -251 -247 -228 -224 -217 0
-301 -249 -248 -226 -225 -217 0
-302 -250 -248 -227 -225 -217 0
-303 -251 -248 -228 -225 -217 0
-304 -250 -249 -227 -226 -217 0
-305 -251 -249 -228 -226 -217 0
-306 -251 -250 -228 -227 -217 0
-262 -253 -252 -220 -219 -218 0
-263 -254 -252 -221 -219 -218 0
-264 -255 -252 -222 -219 -218 0
-265 -256 -252 -223 -219 -218 0
-266 -257 -252 -224 -219 -218 0
-267 -258 -252 -225 -219 -218 0
-268 -259 -252 -226 -219 -218 0
-269 -260 -252 -227 -219 -218 0
-270 -261 -252 -228 -219 -218 0
-271 -254 -253 -221 -220 -218 0
-272 -255 -253 -222 -220 -218 0
-273 -256 -253 -223 -220 -218 0
-274 -257 -253 -224 -220 -218 0
-275 -258 -253 -225 -220 -218 0
-276 -259 -253 -226 -220 -218 0
-277 -260 -253 -227 -220 -218 0
-278 -261 -253 -228 -220 -218 0
-279 -255 -254 -222 -221 -218 0
-280 -256 -254 -223 -221 -218 0
-281 -257 -254 -224 -221 -218 0
-282 -258 -254 -225 -221 -218 0
-283 -259 -254 -226 -221 -218 0
-284 -260 -254 -227 -221 -218 0
-285 -261 -254 -228 -221 -218 0
-286 -256 -255 -223 -222 -218 0
-287 -257 -255 -224 -222 -218 0
-288 -258 -255 -225 -222 -218 0
-289 -259 -255 -226 -222 -218 0
-290 -260 -255 -227 -222 -218 0
-291 -261 -255 -228 -222 -218 0
-292 -257 -256 -224 -223 -218 0
-293 -258 -256 -225 -223 -218 0
-294 -259 -256 -226 -223 -218 0
-295 -260 -256 -227 -223 -218 0
-296 -261 -256 -228 -223 -218 0
-297 -258 -257 -225 -224 -218 0
-298 -259 -257 -226 -224 -218 0
-299 -260 -257 -227 -224 -218 0
-300 -261 -257 -228 -224 -218 0
-301 -259 -258 -226 -225 -218 0
-302 -260 -258 -227 -225 -218 0
-303 -261 -258 -228 -225 -218 0
-304 -260 -259 -227 -226 -218 0
-305 -261 -259 -228 -226 -218 0
-306 -261 -260 -228 -227 -218 0
-271 -263 -262 -221 -220 -219 0
-272 -264 -262 -222 -220 -219 0
-273 -265 -262 -223 -220 -219 0
-274 -266 -262 -224 -220 -219 0
-275 -267 -262 -225 -220 -219 0
-276 -268 -262 -226 -220 -219 0
-277 -269 -262 -227 -220 -219 0
-278 -270 -262 -228 -220 -219 0
-279 -264 -263 -222 -221 -219 0
-280 -265 -263 -223 -221 -219 0
-281 -266 -263 -224 -221 -219 0
-282 -267 -263 -225 -221 -219 0
-283 -268 -263 -226 -221 -219 0
-284 -269 -263 -227 -221 -219 0
-285 -270 -263 -228 -221 -219 0
-286 -265 -264 -223 -222 -219 0
-287 -266 -264 -224 -222 -219 0
-288 -267 -264 -225 -222 -219 0
-289 -268 -264 -226 -222 -219 0
-290 -269 -264 -227 -222 -219 0
-291 -270 -264 -228 -222 -219 0
-292 -266 -265 -224 -223 -219 0
-293 -267 -265 -225 -223 -219 0
-294 -268 -265 -226 -223 -219 0
-295 -269 -265 -227 -223 -219 0
-296 -270 -265 -228 -223 -219 0
-297 -267 -266 -225 -224 -219 0
-298 -268 -266 -226 -224 -219 0
-299 -269 -266 -227 -224 -219 0
-300 -270 -266 -228 -224 -219 0
-301 -268 -267 -226 -225 -219 0
-302 -269 -267 -227 -225 -219 0
-303 -270 -267 -228 -225 -219 0
-304 -269 -268 -227 -226 -219 0
-305 -270 -268 -228 -226 -219 0
-306 -270 -269 -228 -227 -219 0
-279 -272 -271 -222 -221 -220 0
-280 -273 -271 -223 -221 -220 0
-281 -274 -271 -224 -221 -220 0
-282 -275 -271 -225 -221 -220 0
-283 -276 -271 -226 -221 -220 0
-284 -277 -271 -227 -221 -220 0
-285 -278 -271 -228 -221 -220 0
-286 -273 -272 -223 -222 -220 0
-287 -274 -272 -224 -222 -220 0
-288 -275 -272 -225 -222 -220 0
-289 -276 -272 -226 -222 -220 0
-290 -277 -272 -227 -222 -220 0
-291 -278 -272 -228 -222 -220 0
-292 -274 -273 -224 -223 -220 0
-293 -275 -273 -225 -223 -220 0
-294 -276 -273 -226 -223 -220 0
-295 -277 -273 -227 -223 -220 0
-296 -278 -273 -228 -223 -220 0
-297 -275 -274 -225 -224 -220 0
-298 -276 -274 -226 -224 -220 0
-299 -277 -274 -227 -224 -220 0
-300 -278 -274 -228 -224 -220 0
-301 -276 -275 -226 -225 -220 0
-302 -277 -275 -227 -225 -220 0
-303 -278 -275 -228 -225 -220 0
-304 -277 -276 -227 -226 -220 0
-305 -278 -276 -228 -226 -220 0
-306 -278 -277 -228 -227 -220 0
-286 -280 -279 -223 -222 -221 0
-287 -281 -279 -224 -222 -221 0
-288 -282 -279 -225 -222 -221 0
-289 -283 -279 -226 -222 -221 0
-290 -284 -279 -227 -222 -221 0
-291 -285 -279 -228 -222 -221 0
-292 -281 -280 -224 -223 -221 0
-293 -282 -280 -225 -223 -221 0
-294 -283 -280 -226 -223 -221 0
-295 -284 -280 -227 -223 -221 0
-296 -285 -280 -228 -223 -221 0
-297 -282 -281 -225 -224 -221 0
-298 -283 -281 -226 -224 -221 0
-299 -284 -281 -227 -224 -221 0
-300 -285 -281 -228 -224 -221 0
-301 -283 -282 -226 -225 -221 0
-302 -284 -282 -227 -225 -221 0
-303 -285 -282 -228 -225 -221 0
-304 -284 -283 -227 -226 -221 0
-305 -285 -283 -228 -226 -221 0
-306 -285 -284 -228 -227 -221 0
-292 -287 -286 -224 -223 -222 0
-293 -288 -286 -225 -223 -222 0
-294 -289 -286 -226 -223 -222 0
-295 -290 -286 -227 -223 -222 0
-296 -291 -286 -228 -223 -222 0
-297 -288 -287 -225 -224 -222 0
-298 -289 -287 -226 -224 -222 0
-299 -290 -287 -227 -224 -222 0
-300 -291 -287 -228 -224 -222 0
-301 -289 -288 -226 -225 -222 0
-302 -290 -288 -227 -225 -222 0
-303 -291 -288 -228 -225 -222 0
-304 -290 -289 -227 -226 -222 0
-305 -291 -289 -228 -226 -222 0
-306 -291 -290 -228 -227 -222 0
-297 -293 -292 -225 -224 -223 0
-298 -294 -292 -226 -224 -223 0
-299 -295 -292 -227 -224 -223 0
-300 -296 -292 -228 -224 -223 0
-301 -294 -293 -226 -225 -223 0
-302 -295 -293 -227 -225 -223 0
-303 -296 -293 -228 -225 -223 0
-304 -295 -294 -227 -226 -223 0
-305 -296 -294 -228 -226 -223 0
-306 -296 -295 -228 -227 -223 0
-301 -298 -297 -226 -225 -224 0
-302 -299 -297 -227 -225 -224 0
-303 -300 -297 -228 -225 -224 0
-304 -299 -298 -227 -226 -224 0
-305 -300 -298 -228 -226 -224 0
-306 -300 -299 -228 -227 -224 0
-304 -302 -301 -227 -226 -225 0
-305 -303 -301 -228 -226 -225 0
-306 -303 -302 -228 -227 -225 0
-306 -305 -304 -228 -227 -226 0
-252 -242 -241 -231 -230 -229 0
-253 -243 -241 -232 -230 -229 0
-254 -244 -241 -233 -230 -229 0
-255 -245 -241 -234 -230 -229 0
-256 -246 -241 -235 -230 -229 0
-257 -247 -241 -236 -230 -229 0
-258 -248 -241 -237 -230 -229 0
-259 -249 -241 -238 -230 -229 0
-260 -250 -241 -239 -230 -229 0
-261 -251 -241 -240 -230 -229 0
-262 -243 -242 -232 -231 -229 0
-263 -244 -242 -233 -231 -229 0
-264 -245 -242 -234 -231 -229 0
-265 -246 -242 -235 -231 -229 0
-266 -247 -242 -236 -231 -229 0
-267 -248 -242 -237 -231 -229 0
-268 -249 -242 -238 -231 -229 0
-269 -250 -242 -239 -231 -229 0
-270 -251 -242 -240 -231 -229 0
-271 -244 -243 -233 -232 -229 0
-272 -245 -243 -234 -232 -229 0
-273 -246 -243 -235 -232 -229 0
-274 -247 -243 -236 -232 -229 0
-275 -248 -243 -237 -232 -229 0
-276 -249 -243 -238 -232 -229 0
-277 -250 -243 -239 -232 -229 0
-278 -251 -243 -240 -232 -229 0
-279 -245 -244 -234 -233 -229 0
-280 -246 -244 -235 -233 -229 0
-281 -247 -244 -236 -233 -229 0
-282 -248 -244 -237 -233 -229 0
-283 -249 -244 -238 -233 -229 0
-284 -250 -244 -239 -233 -229 0
-285 -251 -244 -240 -233 -229 0
-286 -246 -245 -235 -234 -229 0
-287 -247 -245 -236 -234 -229 0
-288 -248 -245 -237 -234 -229 0
-289 -249 -245 -238 -234 -229 0
-290 -250 -245 -239 -234 -229 0
-291 -251 -245 -240 -234 -229 0
-292 -247 -246 -236 -235 -229 0
-293 -248 -246 -237 -235 -229 0
-294 -249 -246 -238 -235 -229 0
-295 -250 -246 -239 -235 -229 0
-296 -251 -246 -240 -235 -229 0
-297 -248 -247 -237 -236 -229 0
-298 -249 -247 -238 -236 -229 0
-299 -250 -247 -239 -236 -229 0
-300 -251 -247 -240 -236 -229 0
-301 -249 -248 -238 -237 -229 0
-302 -250 -248 -239 -237 -229 0
-303 -251 -248 -240 -237 -229 0
-304 -250 -249 -239 -238 -229 0
-305 -251 -249 -240 -238 -229 0
-306 -251 -250 -240 -239 -229 0
-262 -253 -252 -232 -231 -230 0
-263 -254 -252 -233 -231 -230 0
-264 -255 -252 -234 -231 -230 0
-265 -256 -252 -235 -231 -230 0
-266 -257 -252 -236 -231 -230 0
-267 -258 -252 -237 -231 -230 0
-268 -259 -252 -238 -231 -230 0
-269 -260 -252 -239 -231 -230 0
-270 -261 -252 -240 -231 -230 0
-271 -254 -253 -233 -232 -230 0
-272 -255 -253 -234 -232 -230 0
-273 -256 -253 -235 -232 -230 0
-274 -257 -253 -236 -232 -230 0
-275 -258 -253 -237 -232 -230 0
-276 -259 -253 -238 -232 -230 0
-277 -260 -253 -239 -232 -230 0
-278 -261 -253 -240 -232 -230 0
-279 -255 -254 -234 -233 -230 0
-280 -256 -254 -235 -233 -230 0
-281 -257 -254 -236 -233 -230 0
-282 -258 -254 -237 -233 -230 0
-283 -259 -254 -238 -233 -230 0
-284 -260 -254 -239 -233 -230 0
-285 -261 -254 -240 -233 -230 0
-286 -256 -255 -235 -234 -230 0
-287 -257 -255 -236 -234 -230 0
-288 -258 -255 -237 -234 -230 0
-289 -259 -255 -238 -234 -230 0
-290 -260 -255 -239 -234 -230 0
-291 -261 -255 -240 -234 -230 0
-292 -257 -256 -236 -235 -230 0
-293 -258 -256 -237 -235 -230 0
-294 -259 -256 -238 -235 -230 0
-295 -260 -256 -239 -235 -230 0
-296 -261 -256 -240 -235 -230 0
-297 -258 -257 -237 -236 -230 0
-298 -259 -257 -238 -236 -230 0
-299 -260 -257 -239 -236 -230 0
-300 -261 -257 -240 -236 -230 0
-301 -259 -258 -238 -237 -230 0
-302 -260 -258 -239 -237 -230 0
-303 -261 -258 -240 -237 -230 0
-304 -260 -259 -239 -238 -230 0
-305 -261 -259 -240 -238 -230 0
-306 -261 -260 -240 -239 -230 0
-271 -263 -262 -233 -232 -231 0
-272 -264 -262 -234 -232 -231 0
-273 -265 -262 -235 -232 -231 0
-274 -266 -262 -236 -232 -231 0
-275 -267 -262 -237 -232 -231 0
-276 -268 -262 -238 -232 -231 0
-277 -269 -262 -239 -232 -231 0
-278 -270 -262 -240 -232 -231 0
-279 -264 -263 -234 -233 -231 0
-280 -265 -263 -235 -233 -231 0
-281 -266 -263 -236 -233 -231 0
-282 -267 -263 -237 -233 -231 0
-283 -268 -263 -238 -233 -231 0
-284 -269 -263 -239 -233 -231 0
-285 -270 -263 -240 -233 -231 0
-286 -265 -264 -235 -234 -231 0
-287 -266 -264 -236 -234 -231 0
-288 -267 -264 -237 -234 -231 0
-289 -268 -264 -238 -234 -231 0
-290 -269 -264 -239 -234 -231 0
-291 -270 -264 -240 -234 -231 0
-292 -266 -265 -236 -235 -231 0
-293 -267 -265 -237 -235 -231 0
-294 -268 -265 -238 -235 -231 0
-295 -269 -265 -239 -235 -231 0
-296 -270 -265 -240 -235 -231 0
-297 -267 -266 -237 -236 -231 0
-298 -268 -266 -238 -236 -231 0
-299 -269 -266 -239 -236 -231 0
-300 -270 -266 -240 -236 -231 0
-301 -268 -267 -238 -237 -231 0
-302 -269 -267 -239 -237 -231 0
-303 -270 -267 -240 -237 -231 0
-304 -269 -268 -239 -238 -231 0
-305 -270 -268 -240 -238 -231 0
-306 -270 -269 -240 -239 -231 0
-279 -272 -271 -234 -233 -232 0
-280 -273 -271 -235 -233 -232 0
-281 -274 -271 -236 -233 -232 0
-282 -275 -271 -237 -233 -232 0
-283 -276 -271 -238 -233 -232 0
-284 -277 -271 -239 -233 -232 0
-285 -278 -271 -240 -233 -232 0
-286 -273 -272 -235 -234 -232 0
-287 -274 -272 -236 -234 -232 0
-288 -275 -272 -237 -234 -232 0
-289 -276 -272 -238 -234 -232 0
-290 -277 -272 -239 -234 -232 0
-291 -278 -272 -240 -234 -232 0
-292 -274 -273 -236 -235 -232 0
-293 -275 -273 -237 -235 -232 0
-294 -276 -273 -238 -235 -232 0
-295 -277 -273 -239 -235 -232 0
-296 -278 -273 -240 -235 -232 0
-297 -275 -274 -237 -236 -232 0
-298 -276 -274 -238 -236 -232 0
-299 -277 -274 -239 -236 -232 0
-300 -278 -274 -240 -236 -232 0
-301 -276 -275 -238 -237 -232 0
-302 -277 -275 -239 -237 -232 0
-303 -278 -275 -240 -237 -232 0
-304 -277 -276 -239 -238 -232 0
-305 -278 -276 -240 -238 -232 0
-306 -278 -277 -240 -239 -232 0
-286 -280 -279 -235 -234 -233 0
-287 -281 -279 -236 -234 -233 0
-288 -282 -279 -237 -234 -233 0
-289 -283 -279 -238 -234 -233 0
-290 -284 -279 -239 -234 -233 0
-291 -285 -279 -240 -234 -233 0
-292 -281 -280 -236 -235 -233 0
-293 -282 -280 -237 -235 -233 0
-294 -283 -280 -238 -235 -233 0
-295 -284 -280 -239 -235 -233 0
-296 -285 -280 -240 -235 -233 0
-297 -282 -281 -237 -236 -233 0
-298 -283 -281 -238 -236 -233 0
-299 -284 -281 -239 -236 -233 0
-300 -285 -281 -240 -236 -233 0
-301 -283 -282 -238 -237 -233 0
-302 -284 -282 -239 -237 -233 0
-303 -285 -282 -240 -237 -233 0
-304 -284 -283 -239 -238 -233 0
-305 -285 -283 -240 -238 -233 0
-306 -285 -284 -240 -239 -233 0
-292 -287 -286 -236 -235 -234 0
-293 -288 -286 -237 -235 -234 0
-294 -289 -286 -238 -235 -234 0
-295 -290 -286 -239 -235 -234 0
-296 -291 -286 -240 -235 -234 0
-297 -288 -287 -237 -236 -234 0
-298 -289 -287 -238 -236 -234 0
-299 -290 -287 -239 -236 -234 0
-300 -291 -287 -240 -236 -234 0
-301 -289 -288 -238 -237 -234 0
-302 -290 -288 -239 -237 -234 0
-303 -291 -288 -240 -237 -234 0
-304 -290 -289 -239 -238 -234 0
-305 -291 -289 -240 -238 -234 0
-306 -291 -290 -240 -239 -234 0
-297 -293 -292 -237 -236 -235 0
-298 -294 -292 -238 -236 -235 0
-299 -295 -292 -239 -236 -235 0
-300 -296 -292 -240 -236 -235 0
-301 -294 -293 -238 -237 -235 0
-302 -295 -293 -239 -237 -235 0
-303 -296 -293 -240 -237 -235 0
-304 -295 -294 -239 -238 -235 0
-305 -296 -294 -240 -238 -235 0
-306 -296 -295 -240 -239 -235 0
-301 -298 -297 -238 -237 -236 0
-302 -299 -297 -239 -237 -236 0
-303 -300 -297 -240 -237 -236 0
-304 -299 -298 -239 -238 -236 0
-305 -300 -298 -240 -238 -236 0
-306 -300 -299 -240 -239 -236 0
-304 -302 -301 -239 -238 -237 0
-305 -303 -301 -240 -238 -237 0
-306 -303 -302 -240 -239 -237 0
-306 -305 -304 -240 -239 -238 0
-262 -253 -252 -243 -242 -241 0
-263 -254 -252 -244 -242 -241 0
-264 -255 -252 -245 -242 -241 0
-265 -256 -252 -246 -242 -241 0
-266 -257 -252 -247 -242 -241 0
-267 -258 -252 -248 -242 -241 0
-268 -259 -252 -249 -242 -241 0
-269 -260 -252 -250 -242 -241 0
-270 -261 -252 -251 -242 -241 0
-271 -254 -253 -244 -243 -241 0
-272 -255 -253 -245 -243 -241 0
-273 -256 -253 -246 -243 -241 0
-274 -257 -253 -247 -243 -241 0
-275 -258 -253 -248 -243 -241 0
-276 -259 -253 -249 -243 -241 0
-277 -260 -253 -250 -243 -241 0
-278 -261 -253 -251 -243 -241 0
-279 -255 -254 -245 -244 -241 0
-280 -256 -254 -246 -244 -241 0
-281 -257 -254 -247 -244 -241 0
-282 -258 -254 -248 -244 -241 0
-283 -259 -254 -249 -244 -241 0
-284 -260 -254 -250 -244 -241 0
-285 -261 -254 -251 -244 -241 0
-286 -256 -255 -246 -245 -241 0
-287 -257 -255 -247 -245 -241 0
-288 -258 -255 -248 -245 -241 0
-289 -259 -255 -249 -245 -241 0
-290 -260 -255 -250 -245 -241 0
-291 -261 -255 -251 -245 -241 0
-292 -257 -256 -247 -246 -241 0
-293 -258 -256 -248 -246 -241 0
-294 -259 -256 -249 -246 -241 0
-295 -260 -256 -250 -246 -241 0
-296 -261 -256 -251 -246 -241 0
-297 -258 -257 -248 -247 -241 0
-298 -259 -257 -249 -247 -241 0
-299 -260 -257 -250 -247 -241 0
-300 -261 -257 -251 -247 -241 0
-301 -259 -258 -249 -248 -241 0
-302 -260 -258 -250 -248 -241 0
-303 -261 -258 -251 -248 -241 0
-304 -260 -259 -250 -249 -241 0
-305 -261 -259 -251 -249 -241 0
-306 -261 -260 -251 -250 -241 0
-271 -263 -262 -244 -243 -242 0
-272 -264 -262 -245 -243 -242 0
-273 -265 -262 -246 -243 -242 0
-274 -266 -262 -247 -243 -242 0
-275 -267 -262 -248 -243 -242 0
-276 -268 -262 -249 -243 -242 0
-277 -269 -262 -250 -243 -242 0
-278 -270 -262 -251 -243 -242 0
-279 -264 -263 -245 -244 -242 0
-280 -265 -263 -246 -244 -242 0
-281 -266 -263 -247 -244 -242 0
-282 -267 -263 -248 -244 -242 0
-283 -268 -263 -249 -244 -242 0
-284 -269 -263 -250 -244 -242 0
-285 -270 -263 -251 -244 -242 0
-286 -265 -264 -246 -245 -242 0
-287 -266 -264 -247 -245 -242 0
-288 -267 -264 -248 -245 -242 0
-289 -268 -264 -249 -245 -242 0
-290 -269 -264 -250 -245 -242 0
-291 -270 -264 -251 -245 -242 0
-292 -266 -265 -247 -246 -242 0
-293 -267 -265 -248 -246 -242 0
-294 -268 -265 -249 -246 -242 0
-295 -269 -265 -250 -246 -242 0
-296 -270 -265 -251 -246 -242 0
-297 -267 -266 -248 -247 -242 0
-298 -268 -266 -249 -247 -242 0
-299 -269 -266 -250 -247 -242 0
-300 -270 -266 -251 -247 -242 0
-301 -268 -267 -249 -248 -242 0
-302 -269 -267 -250 -248 -242 0
-303 -270 -267 -251 -248 -242 0
-304 -269 -268 -250 -249 -242 0
-305 -270 -268 -251 -249 -242 0
-306 -270 -269 -251 -250 -242 0
-279 -272 -271 -245 -244 -243 0
-280 -273 -271 -246 -244 -243 0
-281 -274 -271 -247 -244 -243 0
-282 -275 -271 -248 -244 -243 0
-283 -276 -271 -249 -244 -243 0
-284 -277 -271 -250 -244 -243 0
-285 -278 -271 -251 -244 -243 0
-286 -273 -272 -246 -245 -243 0
-287 -274 -272 -247 -245 -243 0
-288 -275 -272 -248 -245 -243 0
-289 -276 -272 -249 -245 -243 0
-290 -277 -272 -250 -245 -243 0
-291 -278 -272 -251 -245 -243 0
-292 -274 -273 -247 -246 -243 0
-293 -275 -273 -248 -246 -243 0
-294 -276 -273 -249 -246 -243 0
-295 -277 -273 -250 -246 -243 0
-296 -278 -273 -251 -246 -243 0
-297 -275 -274 -248 -247 -243 0
-298 -276 -274 -249 -247 -243 0
-299 -277 -274 -250 -247 -243 0
-300 -278 -274 -251 -247 -243 0
-301 -276 -275 -249 -248 -243 0
-302 -277 -275 -250 -248 -243 0
-303 -278 -275 -251 -248 -243 0
-304 -277 -276 -250 -249 -243 0
-305 -278 -276 -251 -249 -243 0
-306 -278 -277 -251 -250 -243 0
-286 -280 -279 -246 -245 -244 0
-287 -281 -279 -247 -245 -244 0
-288 -282 -279 -248 -245 -244 0
-289 -283 -279 -249 -245 -244 0
-290 -284 -279 -250 -245 -244 0
-291 -285 -279 -251 -245 -244 0
-292 -281 -280 -247 -246 -244 0
-293 -282 -280 -248 -246 -244 0
-294 -283 -280 -249 -246 -244 0
-295 -284 -280 -250 -246 -244 0
-296 -285 -280 -251 -246 -244 0
-297 -282 -281 -248 -247 -244 0
-298 -283 -281 -249 -247 -244 0
-299 -284 -281 -250 -247 -244 0
-300 -285 -281 -251 -247 -244 0
-301 -283 -282 -249 -248 -244 0
-302 -284 -282 -250 -248 -244 0
-303 -285 -282 -251 -248 -244 0
-304 -284 -283 -250 -249 -244 0
-305 -285 -283 -251 -249 -244 0
-306 -285 -284 -251 -250 -244 0
-292 -287 -286 -247 -246 -245 0
-293 -288 -286 -248 -246 -245 0
-294 -289 -286 -249 -246 -245 0
-295 -290 -286 -250 -246 -245 0
-296 -291 -286 -251 -246 -245 0
-297 -288 -287 -248 -247 -245 0
-298 -289 -287 -249 -247 -245 0
-299 -290 -287 -250 -247 -245 0
-300 -291 -287 -251 -247 -245 0
-301 -289 -288 -249 -248 -245 0
-302 -290 -288 -250 -248 -245 0
-303 -291 -288 -251 -248 -245 0
-304 -290 -289 -250 -249 -245 0
-305 -291 -289 -251 -249 -245 0
-306 -291 -290 -251 -250 -245 0
-297 -293 -292 -248 -247 -246 0
-298 -294 -292 -249 -247 -246 0
-299 -295 -292 -250 -247 -246 0
-300 -296 -292 -251 -247 -246 0
-301 -294 -293 -249 -248 -246 0
-302 -295 -293 -250 -248 -246 0
-303 -296 -293 -251 -248 -246 0
-304 -295 -294 -250 -249 -246 0
-305 -296 -294 -251 -249 -246 0
-306 -296 -295 -251 -250 -246 0
-301 -298 -297 -249 -248 -247 0
-302 -299 -297 -250 -248 -247 0
-303 -300 -297 -251 -248 -247 0
-304 -299 -298 -250 -249 -247 0
-305 -300 -298 -251 -249 -247 0
-306 -300 -299 -251 -250 -247 0
-304 -302 -301 -250 -249 -248 0
-305 -303 -301 -251 -249 -248 0
-306 -303 -302 -251 -250 -248 0
-306 -305 -304 -251 -250 -249 0
-271 -263 -262 -254 -253 -252 0
-272 -264 -262 -255 -253 -252 0
-273 -265 -262 -256 -253 -252 0
-274 -266 -262 -257 -253 -252 0
-275 -267 -262 -258 -253 -252 0
-276 -268 -262 -259 -253 -252 0
-277 -269 -262 -260 -253 -252 0
-278 -270 -262 -261 -253 -252 0
-279 -264 -263 -255 -254 -252 0
-280 -265 -263 -256 -254 -252 0
-281 -266 -263 -257 -254 -252 0
-282 -267 -263 -258 -254 -252 0
-283 -268 -263 -259 -254 -252 0
-284 -269 -263 -260 -254 -252 0
-285 -270 -263 -261 -254 -252 0
-286 -265 -264 -256 -255 -252 0
-287 -266 -264 -257 -255 -252 0
-288 -267 -264 -258 -255 -252 0
-289 -268 -264 -259 -255 -252 0
-290 -269 -264 -260 -255 -252 0
-291 -270 -264 -261 -255 -252 0
-292 -266 -265 -257 -256 -252 0
-293 -267 -265 -258 -256 -252 0
-294 -268 -265 -259 -256 -252 0
-295 -269 -265 -260 -256 -252 0
-296 -270 -265 -261 -256 -252 0
-297 -267 -266 -258 -257 -252 0
-298 -268 -266 -259 -257 -252 0
-299 -269 -266 -260 -257 -252 0
-300 -270 -266 -261 -257 -252 0
-301 -268 -267 -259 -258 -252 0
-302 -269 -267 -260 -258 -252 0
-303 -270 -267 -261 -258 -252 0
-304 -269 -268 -260 -259 -252 0
-305 -270 -268 -261 -259 -252 0
-306 -270 -269 -261 -260 -252 0
-279 -272 -271 -255 -254 -253 0
-280 -273 -271 -256 -254 -253 0
-281 -274 -271 -257 -254 -253 0
-282 -275 -271 -258 -254 -253 0
-283 -276 -271 -259 -254 -253 0
-284 -277 -271 -260 -254 -253 0
-285 -278 -271 -261 -254 -253 0
-286 -273 -272 -256 -255 -253 0
-287 -274 -272 -257 -255 -253 0
-288 -275 -272 -258 -255 -253 0
-289 -276 -272 -259 -255 -253 0
-290 -277 -272 -260 -255 -253 0
-291 -278 -272 -261 -255 -253 0
-292 -274 -273 -257 -256 -253 0
-293 -275 -273 -258 -256 -253 0
-294 -276 -273 -259 -256 -253 0
-295 -277 -273 -260 -256 -253 0
-296 -278 -273 -261 -256 -253 0
-297 -275 -274 -258 -257 -253 0
-298 -276 -274 -259 -257 -253 0
-299 -277 -274 -260 -257 -253 0
-300 -278 -274 -261 -257 -253 0
-301 -276 -275 -259 -258 -253 0
-302 -277 -275 -260 -258 -253 0
-303 -278 -275 -261 -258 -253 0
-304 -277 -276 -260 -259 -253 0
-305 -278 -276 -261 -259 -253 0
-306 -278 -277 -261 -260 -253 0
-286 -280 -279 -256 -255 -254 0
-287 -281 -279 -257 -255 -254 0
-288 -282 -279 -258 -255 -254 0
-289 -283 -279 -259 -255 -254 0
-290 -284 -279 -260 -255 -254 0
-291 -285 -279 -261 -255 -254 0
-292 -281 -280 -257 -256 -254 0
-293 -282 -280 -258 -256 -254 0
-294 -283 -280 -259 -256 -254 0
-295 -284 -280 -260 -256 -254 0
-296 -285 -280 -261 -256 -254 0
-297 -282 -281 -258 -257 -254 0
-298 -283 -281 -259 -257 -254 0
-299 -284 -281 -260 -257 -254 0
-300 -285 -281 -261 -257 -254 0
-301 -283 -282 -259 -258 -254 0
-302 -284 -282 -260 -258 -254 0
-303 -285 -282 -261 -258 -254 0
-304 -284 -283 -260 -259 -254 0
-305 -285 -283 -261 -259 -254 0
-306 -285 -284 -261 -260 -254 0
-292 -287 -286 -257 -256 -255 0
-293 -288 -286 -258 -256 -255 0
-294 -289 -286 -259 -256 -255 0
-295 -290 -286 -260 -256 -255 0
-296 -291 -286 -261 -256 -255 0
-297 -288 -287 -258 -257 -255 0
-298 -289 -287 -259 -257 -255 0
-299 -290 -287 -260 -257 -255 0
-300 -291 -287 -261 -257 -255 0
-301 -289 -288 -259 -258 -255 0
-302 -290 -288 -260 -258 -255 0
-303 -291 -288 -261 -258 -255 0
-304 -290 -289 -260 -259 -255 0
-305 -291 -289 -261 -259 -255 0
-306 -291 -290 -261 -260 -255 0
-297 -293 -292 -258 -257 -256 0
-298 -294 -292 -259 -257 -256 0
-299 -295 -292 -260 -257 -256 0
-300 -296 -292 -261 -257 -256 0
-301 -294 -293 -259 -258 -256 0
-302 -295 -293 -260 -258 -256 0
-303 -296 -293 -261 -258 -256 0
-304 -295 -294 -260 -259 -256 0
-305 -296 -294 -261 -259 -256 0
-306 -296 -295 -261 -260 -256 0
-301 -298 -297 -259 -258 -257 0
-302 -299 -297 -260 -258 -257 0
-303 -300 -297 -261 -258 -257 0
-304 -299 -298 -260 -259 -257 0
-305 -300 -298 -261 -259 -257 0
-306 -300 -299 -261 -260 -257 0
-304 -302 -301 -260 -259 -258 0
-305 -303 -301 -261 -259 -258 0
-306 -303 -302 -261 -260 -258 0
-306 -305 -304 -261 -260 -259 0
-279 -272 -271 -264 -263 -262 0
-280 -273 -271 -265 -263 -262 0
-281 -274 -271 -266 -263 -262 0
-282 -275 -271 -267 -263 -262 0
-283 -276 -271 -268 -263 -262 0
-284 -277 -271 -269 -263 -262 0
-285 -278 -271 -270 -263 -262 0
-286 -273 -272 -265 -264 -262 0
-287 -274 -272 -266 -264 -262 0
-288 -275 -272 -267 -264 -262 0
-289 -276 -272 -268 -264 -262 0
-290 -277 -272 -269 -264 -262 0
-291 -278 -272 -270 -264 -262 0
-292 -274 -273 -266 -265 -262 0
-293 -275 -273 -267 -265 -262 0
-294 -276 -273 -268 -265 -262 0
-295 -277 -273 -269 -265 -262 0
-296 -278 -273 -270 -265 -262 0
-297 -275 -274 -267 -266 -262 0
-298 -276 -274 -268 -266 -262 0
-299 -277 -274 -269 -266 -262 0
-300 -278 -274 -270 -266 -262 0
-301 -276 -275 -268 -267 -262 0
-302 -277 -275 -269 -267 -262 0
-303 -278 -275 -270 -267 -262 0
-304 -277 -276 -269 -268 -262 0
-305 -278 -276 -270 -268 -262 0
-306 -278 -277 -270 -269 -262 0
-286 -280 -279 -265 -264 -263 0
-287 -281 -279 -266 -264 -263 0
-288 -282 -279 -267 -264 -263 0
-289 -283 -279 -268 -264 -263 0
-290 -284 -279 -269 -264 -263 0
-291 -285 -279 -270 -264 -263 0
-292 -281 -280 -266 -265 -263 0
-293 -282 -280 -267 -265 -263 0
-294 -283 -280 -268 -265 -263 0
-295 -284 -280 -269 -265 -263 0
-296 -285 -280 -270 -265 -263 0
-297 -282 -281 -267 -266 -263 0
-298 -283 -281 -268 -266 -263 0
-299 -284 -281 -269 -266 -263 0
-300 -285 -281 -270 -266 -263 0
-301 -283 -282 -268 -267 -263 0
-302 -284 -282 -269 -267 -263 0
-303 -285 -282 -270 -267 -263 0
-304 -284 -283 -269 -268 -263 0
-305 -285 -283 -270 -268 -263 0
-306 -285 -284 -270 -269 -263 0
-292 -287 -286 -266 -265 -264 0
-293 -288 -286 -267 -265 -264 0
-294 -289 -286 -268 -265 -264 0
-295 -290 -286 -269 -265 -264 0
-296 -291 -286 -270 -265 -264 0
-297 -288 -287 -267 -266 -264 0
-298 -289 -287 -268 -266 -264 0
-299 -290 -287 -269 -266 -264 0
-300 -291 -287 -270 -266 -264 0
-301 -289 -288 -268 -267 -264 0
-302 -290 -288 -269 -267 -264 0
-303 -291 -288 -270 -267 -264 0
-304 -290 -289 -269 -268 -264 0
-305 -291 -289 -270 -268 -264 0
-306 -291 -290 -270 -269 -264 0
-297 -293 -292 -267 -266 -265 0
-298 -294 -292 -268 -266 -265 0
-299 -295 -292 -269 -266 -265 0
-300 -296 -292 -270 -266 -265 0
-301 -294 -293 -268 -267 -265 0
-302 -295 -293 -269 -267 -265 0
-303 -296 -293 -270 -267 -265 0
-304 -295 -294 -269 -268 -265 0
-305 -296 -294 -270 -268 -265 0
-306 -296 -295 -270 -269 -265 0
-301 -298 -297 -268 -267 -266 0
-302 -299 -297 -269 -267 -266 0
-303 -300 -297 -270 -267 -266 0
-304 -299 -298 -269 -268 -266 0
-305 -300 -298 -270 -268 -266 0
-306 -300 -299 -270 -269 -266 0
-304 -302 -301 -269 -268 -267 0
-305 -303 -301 -270 -268 -267 0
-306 -303 -302 -270 -269 -267 0
-306 -305 -304 -270 -269 -268 0
-286 -280 -279 -273 -272 -271 0
-287 -281 -279 -274 -272 -271 0
-288 -282 -279 -275 -272 -271 0
-289 -283 -279 -276 -272 -271 0
-290 -284 -279 -277 -272 -271 0
-291 -285 -279 -278 -272 -271 0
-292 -281 -280 -274 -273 -271 0
-293 -282 -280 -275 -273 -271 0
-294 -283 -280 -276 -273 -271 0
-295 -284 -280 -277 -273 -271 0
-296 -285 -280 -278 -273 -271 0
-297 -282 -281 -275 -274 -271 0
-298 -283 -281 -276 -274 -271 0
-299 -284 -281 -277 -274 -271 0
-300 -285 -281 -278 -274 -271 0
-301 -283 -282 -276 -275 -271 0
-302 -284 -282 -277 -275 -271 0
-303 -285 -282 -278 -275 -271 0
-304 -284 -283 -277 -276 -271 0
-305 -285 -283 -278 -276 -271 0
-306 -285 -284 -278 -277 -271 0
-292 -287 -286 -274 -273 -272 0
-293 -288 -286 -275 -273 -272 0
-294 -289 -286 -276 -273 -272 0
-295 -290 -286 -277 -273 -272 0
-296 -291 -286 -278 -273 -272 0
-297 -288 -287 -275 -274 -272 0
-298 -289 -287 -276 -274 -272 0
-299 -290 -287 -277 -274 -272 0
-300 -291 -287 -278 -274 -272 0
-301 -289 -288 -276 -275 -272 0
-302 -290 -288 -277 -275 -272 0
-303 -291 -288 -278 -275 -272 0
-304 -290 -289 -277 -276 -272 0
-305 -291 -289 -278 -276 -272 0
-306 -291 -290 -278 -277 -272 0
-297 -293 -292 -275 -274 -273 0
-298 -294 -292 -276 -274 -273 0
-299 -295 -292 -277 -274 -273 0
-300 -296 -292 -278 -274 -273 0
-301 -294 -293 -276 -275 -273 0
-302 -295 -293 -277 -275 -273 0
-303 -296 -293 -278 -275 -273 0
-304 -295 -294 -277 -276 -273 0
-305 -296 -294 -278 -276 -273 0
-306 -296 -295 -278 -277 -273 0
-301 -298 -297 -276 -275 -274 0
-302 -299 -297 -277 -275 -274 0
-303 -300 -297 -278 -275 -274 0
-304 -299 -298 -277 -276 -274 0
-305 -300 -298 -278 -276 -274 0
-306 -300 -299 -278 -277 -274 0
-304 -302 -301 -277 -276 -275 0
-305 -303 -301 -278 -276 -275 0
-306 -303 -302 -278 -277 -275 0
-306 -305 -304 -278 -277 -276 0
-292 -287 -286 -281 -280 -279 0
-293 -288 -286 -282 -280 -279 0
-294 -289 -286 -283 -280 -279 0
-295 -290 -286 -284 -280 -279 0
-296 -291 -286 -285 -280 -279 0
-297 -288 -287 -282 -281 -279 0
-298 -289 -287 -283 -281 -279 0
-299 -290 -287 -284 -281 -279 0
-300 -291 -287 -285 -281 -279 0
-301 -289 -288 -283 -282 -279 0
-302 -290 -288 -284 -282 -279 0
-303 -291 -288 -285 -282 -279 0
-304 -290 -289 -284 -283 -279 0
-305 -291 -289 -285 -283 -279 0
-306 -291 -290 -285 -284 -279 0
-297 -293 -292 -282 -281 -280 0
-298 -294 -292 -283 -281 -280 0
-299 -295 -292 -284 -281 -280 0
-300 -296 -292 -285 -281 -280 0
-301 -294 -293 -283 -282 -280 0
-302 -295 -293 -284 -282 -280 0
-303 -296 -293 -285 -282 -280 0
-304 -295 -294 -284 -283 -280 0
-305 -296 -294 -285 -283 -280 0
-306 -296 -295 -285 -284 -280 0
-301 -298 -297 -283 -282 -281 0
-302 -299 -297 -284 -282 -281 0
-303 -300 -297 -285 -282 -281 0
-304 -299 -298 -284 -283 -281 0
-305 -300 -298 -285 -283 -281 0
-306 -300 -299 -285 -284 -281 0
-304 -302 -301 -284 -283 -282 0
-305 -303 -301 -285 -283 -282 0
-306 -303 -302 -285 -284 -282 0
-306 -305 -304 -285 -284 -283 0
-297 -293 -292 -288 -287 -286 0
-298 -294 -292 -289 -287 -286 0
-299 -295 -292 -290 -287 -286 0
-300 -296 -292 -291 -287 -286 0
-301 -294 -293 -289 -288 -286 0
-302 -295 -293 -290 -288 -286 0
-303 -296 -293 -291 -288 -286 0
-304 -295 -294 -290 -289 -286 0
-305 -296 -294 -291 -289 -286 0
-306 -296 -295 -291 -290 -286 0
-301 -298 -297 -289 -288 -287 0
-302 -299 -297 -290 -288 -287 0
-303 -300 -297 -291 -288 -287 0
-304 -299 -298 -290 -289 -287 0
-305 -300 -298 -291 -289 -287 0
-306 -300 -299 -291 -290 -287 0
-304 -302 -301 -290 -289 -288 0
-305 -303 -301 -291 -289 -288 0
-306 -303 -302 -291 -290 -288 0
-306 -305 -304 -291 -290 -289 0
-301 -298 -297 -294 -293 -292 0
-302 -299 -297 -295 -293 -292 0
-303 -300 -297 -296 -293 -292 0
-304 -299 -298 -295 -294 -292 0
-305 -300 -298 -296 -294 -292 0
-306 -300 -299 -296 -295 -292 0
-304 -302 -301 -295 -294 -293 0
-305 -303 -301 -296 -294 -293 0
-306 -303 -302 -296 -295 -293 0
-306 -305 -304 -296 -295 -294 0
-304 -302 -301 -299 -298 -297 0
-305 -303 -301 -300 -298 -297 0
-306 -303 -302 -300 -299 -297 0
-306 -305 -304 -300 -299 -298 0
-306 -305 -304 -303 -302 -301 0
159 6 0
-159 -6 0
158 5 0
-158 -5 0
157 4 0
-157 -4 0
162 9 0
-162 -9 0
165 12 0
-165 -12 0
168 15 0
-168 -15 0
171 18 0
-171 -18 0
174 21 0
-174 -21 0
177 24 0
-177 -24 0
180 27 0
-180 -27 0
183 30 0
-183 -30 0
186 33 0
-186 -33 0
189 36 0
-189 -36 0
192 39 0
-192 -39 0
195 42 0
-195 -42 0
198 45 0
-198 -45 0
201 48 0
-201 -48 0
156 3 0
-156 -3 0
155 2 0
-155 -2 0
161 8 0
-161 -8 0
164 11 0
-164 -11 0
167 14 0
-167 -14 0
170 17 0
-170 -17 0
173 20 0
-173 -20 0
176 23 0
-176 -23 0
179 26 0
-179 -26 0
182 29 0
-182 -29 0
185 32 0
-185 -32 0
188 35 0
-188 -35 0
191 38 0
-191 -38 0
194 41 0
-194 -41 0
197 44 0
-197 -44 0
200 47 0
-200 -47 0
154 1 0
-154 -1 0
160 7 0
-160 -7 0
163 10 0
-163 -10 0
166 13 0
-166 -13 0
169 16 0
-169 -16 0
172 19 0
-172 -19 0
175 22 0
-175 -22 0
178 25 0
-178 -25 0
181 28 0
-181 -28 0
184 31 0
-184 -31 0
187 34 0
-187 -34 0
190 37 0
-190 -37 0
193 40 0
-193 -40 0
196 43 0
-196 -43 0
199 46 0
-199 -46 0
202 49 0
-202 -49 0
203 50 0
-203 -50 0
204 51 0
-204 -51 0
205 52 0
-205 -52 0
206 53 0
-206 -53 0
207 54 0
-207 -54 0
208 55 0
-208 -55 0
209 56 0
-209 -56 0
210 57 0
-210 -57 0
211 58 0
-211 -58 0
212 59 0
-212 -59 0
213 60 0
-213 -60 0
214 61 0
-214 -61 0
215 62 0
-215 -62 0
216 63 0
-216 -63 0
217 64 0
-217 -64 0
218 65 0
-218 -65 0
219 66 0
-219 -66 0
220 67 0
-220 -67 0
221 68 0
-221 -68 0
222 69 0
-222 -69 0
223 70 0
-223 -70 0
224 71 0
-224 -71 0
225 72 0
-225 -72 0
226 73 0
-226 -73 0
227 74 0
-227 -74 0
228 75 0
-228 -75 0
229 76 0
-229 -76 0
230 77 0
-230 -77 0
231 78 0
-231 -78 0
232 79 0
-232 -79 0
233 80 0
-233 -80 0
234 81 0
-234 -81 0
235 82 0
-235 -82 0
236 83 0
-236 -83 0
237 84 0
-237 -84 0
238 85 0
-238 -85 0
239 86 0
-239 -86 0
240 87 0
-240 -87 0
241 88 0
-241 -88 0
242 89 0
-242 -89 0
243 90 0
-243 -90 0
244 91 0
-244 -91 0
245 92 0
-245 -92 0
246 93 0
-246 -93 0
247 94 0
-247 -94 0
248 95 0
-248 -95 0
249 96 0
-249 -96 0
250 97 0
-250 -97 0
251 98 0
-251 -98 0
252 99 0
-252 -99 0
253 100 0
-253 -100 0
254 101 0
-254 -101 0
255 102 0
-255 -102 0
256 103 0
-256 -103 0
257 104 0
-257 -104 0
258 105 0
-258 -105 0
259 106 0
-259 -106 0
260 107 0
-260 -107 0
261 108 0
-261 -108 0
262 109 0
-262 -109 0
263 110 0
-263 -110 0
264 111 0
-264 -111 0
265 112 0
-265 -112 0
266 113 0
-266 -113 0
267 114 0
-267 -114 0
268 115 0
-268 -115 0
269 116 0
-269 -116 0
270 117 0
-270 -117 0
271 118 0
-271 -118 0
272 119 0
-272 -119 0
273 120 0
-273 -120 0
274 121 0
-274 -121 0
275 122 0
-275 -122 0
276 123 0
-276 -123 0
277 124 0
-277 -124 0
278 125 0
-278 -125 0
279 126 0
-279 -126 0
280 127 0
-280 -127 0
281 128 0
-281 -128 0
282 129 0
-282 -129 0
283 130 0
-283 -130 0
284 131 0
-284 -131 0
285 132 0
-285 -132 0
286 133 0
-286 -133 0
287 134 0
-287 -134 0
288 135 0
-288 -135 0
289 136 0
-289 -136 0
290 137 0
-290 -137 0
291 138 0
-291 -138 0
292 139 0
-292 -139 0
293 140 0
-293 -140 0
294 141 0
-294 -141 0
295 142 0
-295 -142 0
296 143 0
-296 -143 0
297 144 0
-297 -144 0
298 145 0
-298 -145 0
299 146 0
-299 -146 0
300 147 0
-300 -147 0
301 148 0
-301 -148 0
302 149 0
-302 -149 0
303 150 0
-303 -150 0
304 151 0
-304 -151 0
305 152 0
-305 -152 0
306 153 0
-306 -153 0
