c auto generated from <file>
p cnf 272 5032
-1 -2 -3 -4 -5 -6 0
-7 -8 -3 -9 -5 -6 0
-10 -11 -3 -12 -5 -6 0
-13 -14 -3 -15 -5 -6 0
-16 -17 -3 -18 -5 -6 0
-19 -20 -3 -21 -5 -6 0
-22 -23 -3 -24 -5 -6 0
-25 -26 -3 -27 -5 -6 0
-28 -29 -3 -30 -5 -6 0
-31 -32 -3 -33 -5 -6 0
-34 -35 -3 -36 -5 -6 0
-37 -38 -3 -39 -5 -6 0
-40 -41 -3 -42 -5 -6 0
-43 -44 -3 -45 -5 -6 0
-46 -8 -2 -9 -4 -6 0
-47 -11 -2 -12 -4 -6 0
-48 -14 -2 -15 -4 -6 0
-49 -17 -2 -18 -4 -6 0
-50 -20 -2 -21 -4 -6 0
-51 -23 -2 -24 -4 -6 0
-52 -26 -2 -27 -4 -6 0
-53 -29 -2 -30 -4 -6 0
-54 -32 -2 -33 -4 -6 0
-55 -35 -2 -36 -4 -6 0
-56 -38 -2 -39 -4 -6 0
-57 -41 -2 -42 -4 -6 0
-58 -44 -2 -45 -4 -6 0
-59 -11 -8 -12 -9 -6 0
-60 -14 -8 -15 -9 -6 0
-61 -17 -8 -18 -9 -6 0
-62 -20 -8 -21 -9 -6 0
-63 -23 -8 -24 -9 -6 0
-64 -26 -8 -27 -9 -6 0
-65 -29 -8 -30 -9 -6 0
-66 -32 -8 -33 -9 -6 0
-67 -35 -8 -36 -9 -6 0
-68 -38 -8 -39 -9 -6 0
-69 -41 -8 -42 -9 -6 0
-70 -44 -8 -45 -9 -6 0
-71 -14 -11 -15 -12 -6 0
-72 -17 -11 -18 -12 -6 0
-73 -20 -11 -21 -12 -6 0
-74 -23 -11 -24 -12 -6 0
-75 -26 -11 -27 -12 -6 0
-76 -29 -11 -30 -12 -6 0
-77 -32 -11 -33 -12 -6 0
-78 -35 -11 -36 -12 -6 0
-79 -38 -11 -39 -12 -6 0
-80 -41 -11 -42 -12 -6 0
-81 -44 -11 -45 -12 -6 0
-82 -17 -14 -18 -15 -6 0
-83 -20 -14 -21 -15 -6 0
-84 -23 -14 -24 -15 -6 0
-85 -26 -14 -27 -15 -6 0
-86 -29 -14 -30 -15 -6 0
-87 -32 -14 -33 -15 -6 0
-88 -35 -14 -36 -15 -6 0
-89 -38 -14 -39 -15 -6 0
-90 -41 -14 -42 -15 -6 0
-91 -44 -14 -45 -15 -6 0
-92 -20 -17 -21 -18 -6 0
-93 -23 -17 -24 -18 -6 0
-94 -26 -17 -27 -18 -6 0
-95 -29 -17 -30 -18 -6 0
-96 -32 -17 -33 -18 -6 0
-97 -35 -17 -36 -18 -6 0
-98 -38 -17 -39 -18 -6 0
-99 -41 -17 -42 -18 -6 0
-100 -44 -17 -45 -18 -6 0
-101 -23 -20 -24 -21 -6 0
-102 -26 -20 -27 -21 -6 0
-103 -29 -20 -30 -21 -6 0
-104 -32 -20 -33 -21 -6 0
-105 -35 -20 -36 -21 -6 0
-106 -38 -20 -39 -21 -6 0
-107 -41 -20 -42 -21 -6 0
-108 -44 -20 -45 -21 -6 0
-109 -26 -23 -27 -24 -6 0
-110 -29 -23 -30 -24 -6 0
-111 -32 -23 -33 -24 -6 0
-112 -35 -23 -36 -24 -6 0
-113 -38 -23 -39 -24 -6 0
-114 -41 -23 -42 -24 -6 0
-115 -44 -23 -45 -24 -6 0
-116 -29 -26 -30 -27 -6 0
-117 -32 -26 -33 -27 -6 0
-118 -35 -26 -36 -27 -6 0
-119 -38 -26 -39 -27 -6 0
-120 -41 -26 -42 -27 -6 0
-121 -44 -26 -45 -27 -6 0
-122 -32 -29 -33 -30 -6 0
-123 -35 -29 -36 -30 -6 0
-124 -38 -29 -39 -30 -6 0
-125 -41 -29 -42 -30 -6 0
-126 -44 -29 -45 -30 -6 0
-127 -35 -32 -36 -33 -6 0
-128 -38 -32 -39 -33 -6 0
-129 -41 -32 -42 -33 -6 0
-130 -44 -32 -45 -33 -6 0
-131 -38 -35 -39 -36 -6 0
-132 -41 -35 -42 -36 -6 0
-133 -44 -35 -45 -36 -6 0
-134 -41 -38 -42 -39 -6 0
-135 -44 -38 -45 -39 -6 0
-136 -44 -41 -45 -42 -6 0
-46 -7 -1 -9 -4 -5 0
-47 -10 -1 -12 -4 -5 0
-48 -13 -1 -15 -4 -5 0
-49 -16 -1 -18 -4 -5 0
-50 -19 -1 -21 -4 -5 0
-51 -22 -1 -24 -4 -5 0
-52 -25 -1 -27 -4 -5 0
-53 -28 -1 -30 -4 -5 0
-54 -31 -1 -33 -4 -5 0
-55 -34 -1 -36 -4 -5 0
-56 -37 -1 -39 -4 -5 0
-57 -40 -1 -42 -4 -5 0
-58 -43 -1 -45 -4 -5 0
-59 -10 -7 -12 -9 -5 0
-60 -13 -7 -15 -9 -5 0
-61 -16 -7 -18 -9 -5 0
-62 -19 -7 -21 -9 -5 0
-63 -22 -7 -24 -9 -5 0
-64 -25 -7 -27 -9 -5 0
-65 -28 -7 -30 -9 -5 0
-66 -31 -7 -33 -9 -5 0
-67 -34 -7 -36 -9 -5 0
-68 -37 -7 -39 -9 -5 0
-69 -40 -7 -42 -9 -5 0
-70 -43 -7 -45 -9 -5 0
-71 -13 -10 -15 -12 -5 0
-72 -16 -10 -18 -12 -5 0
-73 -19 -10 -21 -12 -5 0
-74 -22 -10 -24 -12 -5 0
-75 -25 -10 -27 -12 -5 0
-76 -28 -10 -30 -12 -5 0
-77 -31 -10 -33 -12 -5 0
-78 -34 -10 -36 -12 -5 0
-79 -37 -10 -39 -12 -5 0
-80 -40 -10 -42 -12 -5 0
-81 -43 -10 -45 -12 -5 0
-82 -16 -13 -18 -15 -5 0
-83 -19 -13 -21 -15 -5 0
-84 -22 -13 -24 -15 -5 0
-85 -25 -13 -27 -15 -5 0
-86 -28 -13 -30 -15 -5 0
-87 -31 -13 -33 -15 -5 0
-88 -34 -13 -36 -15 -5 0
-89 -37 -13 -39 -15 -5 0
-90 -40 -13 -42 -15 -5 0
-91 -43 -13 -45 -15 -5 0
-92 -19 -16 -21 -18 -5 0
-93 -22 -16 -24 -18 -5 0
-94 -25 -16 -27 -18 -5 0
-95 -28 -16 -30 -18 -5 0
-96 -31 -16 -33 -18 -5 0
-97 -34 -16 -36 -18 -5 0
-98 -37 -16 -39 -18 -5 0
-99 -40 -16 -42 -18 -5 0
-100 -43 -16 -45 -18 -5 0
-101 -22 -19 -24 -21 -5 0
-102 -25 -19 -27 -21 -5 0
-103 -28 -19 -30 -21 -5 0
-104 -31 -19 -33 -21 -5 0
-105 -34 -19 -36 -21 -5 0
-106 -37 -19 -39 -21 -5 0
-107 -40 -19 -42 -21 -5 0
-108 -43 -19 -45 -21 -5 0
-109 -25 -22 -27 -24 -5 0
-110 -28 -22 -30 -24 -5 0
-111 -31 -22 -33 -24 -5 0
-112 -34 -22 -36 -24 -5 0
-113 -37 -22 -39 -24 -5 0
-114 -40 -22 -42 -24 -5 0
-115 -43 -22 -45 -24 -5 0
-116 -28 -25 -30 -27 -5 0
-117 -31 -25 -33 -27 -5 0
-118 -34 -25 -36 -27 -5 0
-119 -37 -25 -39 -27 -5 0
-120 -40 -25 -42 -27 -5 0
-121 -43 -25 -45 -27 -5 0
-122 -31 -28 -33 -30 -5 0
-123 -34 -28 -36 -30 -5 0
-124 -37 -28 -39 -30 -5 0
-125 -40 -28 -42 -30 -5 0
-126 -43 -28 -45 -30 -5 0
-127 -34 -31 -36 -33 -5 0
-128 -37 -31 -39 -33 -5 0
-129 -40 -31 -42 -33 -5 0
-130 -43 -31 -45 -33 -5 0
-131 -37 -34 -39 -36 -5 0
-132 -40 -34 -42 -36 -5 0
-133 -43 -34 -45 -36 -5 0
-134 -40 -37 -42 -39 -5 0
-135 -43 -37 -45 -39 -5 0
-136 -43 -40 -45 -42 -5 0
-59 -47 -46 -12 -9 -4 0
-60 -48 -46 -15 -9 -4 0
-61 -49 -46 -18 -9 -4 0
-62 -50 -46 -21 -9 -4 0
-63 -51 -46 -24 -9 -4 0
-64 -52 -46 -27 -9 -4 0
-65 -53 -46 -30 -9 -4 0
-66 -54 -46 -33 -9 -4 0
-67 -55 -46 -36 -9 -4 0
-68 -56 -46 -39 -9 -4 0
-69 -57 -46 -42 -9 -4 0
-70 -58 -46 -45 -9 -4 0
-71 -48 -47 -15 -12 -4 0
-72 -49 -47 -18 -12 -4 0
-73 -50 -47 -21 -12 -4 0
-74 -51 -47 -24 -12 -4 0
-75 -52 -47 -27 -12 -4 0
-76 -53 -47 -30 -12 -4 0
-77 -54 -47 -33 -12 -4 0
-78 -55 -47 -36 -12 -4 0
-79 -56 -47 -39 -12 -4 0
-80 -57 -47 -42 -12 -4 0
-81 -58 -47 -45 -12 -4 0
-82 -49 -48 -18 -15 -4 0
-83 -50 -48 -21 -15 -4 0
-84 -51 -48 -24 -15 -4 0
-85 -52 -48 -27 -15 -4 0
-86 -53 -48 -30 -15 -4 0
-87 -54 -48 -33 -15 -4 0
-88 -55 -48 -36 -15 -4 0
-89 -56 -48 -39 -15 -4 0
-90 -57 -48 -42 -15 -4 0
-91 -58 -48 -45 -15 -4 0
-92 -50 -49 -21 -18 -4 0
-93 -51 -49 -24 -18 -4 0
-94 -52 -49 -27 -18 -4 0
-95 -53 -49 -30 -18 -4 0
-96 -54 -49 -33 -18 -4 0
-97 -55 -49 -36 -18 -4 0
-98 -56 -49 -39 -18 -4 0
-99 -57 -49 -42 -18 -4 0
-100 -58 -49 -45 -18 -4 0
-101 -51 -50 -24 -21 -4 0
-102 -52 -50 -27 -21 -4 0
-103 -53 -50 -30 -21 -4 0
-104 -54 -50 -33 -21 -4 0
-105 -55 -50 -36 -21 -4 0
-106 -56 -50 -39 -21 -4 0
-107 -57 -50 -42 -21 -4 0
-108 -58 -50 -45 -21 -4 0
-109 -52 -51 -27 -24 -4 0
-110 -53 -51 -30 -24 -4 0
-111 -54 -51 -33 -24 -4 0
-112 -55 -51 -36 -24 -4 0
-113 -56 -51 -39 -24 -4 0
-114 -57 -51 -42 -24 -4 0
-115 -58 -51 -45 -24 -4 0
-116 -53 -52 -30 -27 -4 0
-117 -54 -52 -33 -27 -4 0
-118 -55 -52 -36 -27 -4 0
-119 -56 -52 -39 -27 -4 0
-120 -57 -52 -42 -27 -4 0
-121 -58 -52 -45 -27 -4 0
-122 -54 -53 -33 -30 -4 0
-123 -55 -53 -36 -30 -4 0
-124 -56 -53 -39 -30 -4 0
-125 -57 -53 -42 -30 -4 0
-126 -58 -53 -45 -30 -4 0
-127 -55 -54 -36 -33 -4 0
-128 -56 -54 -39 -33 -4 0
-129 -57 -54 -42 -33 -4 0
-130 -58 -54 -45 -33 -4 0
-131 -56 -55 -39 -36 -4 0
-132 -57 -55 -42 -36 -4 0
-133 -58 -55 -45 -36 -4 0
-134 -57 -56 -42 -39 -4 0
-135 -58 -56 -45 -39 -4 0
-136 -58 -57 -45 -42 -4 0
-71 -60 -59 -15 -12 -9 0
-72 -61 -59 -18 -12 -9 0
-73 -62 -59 -21 -12 -9 0
-74 -63 -59 -24 -12 -9 0
-75 -64 -59 -27 -12 -9 0
-76 -65 -59 -30 -12 -9 0
-77 -66 -59 -33 -12 -9 0
-78 -67 -59 -36 -12 -9 0
-79 -68 -59 -39 -12 -9 0
-80 -69 -59 -42 -12 -9 0
-81 -70 -59 -45 -12 -9 0
-82 -61 -60 -18 -15 -9 0
-83 -62 -60 -21 -15 -9 0
-84 -63 -60 -24 -15 -9 0
-85 -64 -60 -27 -15 -9 0
-86 -65 -60 -30 -15 -9 0
-87 -66 -60 -33 -15 -9 0
-88 -67 -60 -36 -15 -9 0
-89 -68 -60 -39 -15 -9 0
-90 -69 -60 -42 -15 -9 0
-91 -70 -60 -45 -15 -9 0
-92 -62 -61 -21 -18 -9 0
-93 -63 -61 -24 -18 -9 0
-94 -64 -61 -27 -18 -9 0
-95 -65 -61 -30 -18 -9 0
-96 -66 -61 -33 -18 -9 0
-97 -67 -61 -36 -18 -9 0
-98 -68 -61 -39 -18 -9 0
-99 -69 -61 -42 -18 -9 0
-100 -70 -61 -45 -18 -9 0
-101 -63 -62 -24 -21 -9 0
-102 -64 -62 -27 -21 -9 0
-103 -65 -62 -30 -21 -9 0
-104 -66 -62 -33 -21 -9 0
-105 -67 -62 -36 -21 -9 0
-106 -68 -62 -39 -21 -9 0
-107 -69 -62 -42 -21 -9 0
-108 -70 -62 -45 -21 -9 0
-109 -64 -63 -27 -24 -9 0
-110 -65 -63 -30 -24 -9 0
-111 -66 -63 -33 -24 -9 0
-112 -67 -63 -36 -24 -9 0
-113 -68 -63 -39 -24 -9 0
-114 -69 -63 -42 -24 -9 0
-115 -70 -63 -45 -24 -9 0
-116 -65 -64 -30 -27 -9 0
-117 -66 -64 -33 -27 -9 0
-118 -67 -64 -36 -27 -9 0
-119 -68 -64 -39 -27 -9 0
-120 -69 -64 -42 -27 -9 0
-121 -70 -64 -45 -27 -9 0
-122 -66 -65 -33 -30 -9 0
-123 -67 -65 -36 -30 -9 0
-124 -68 -65 -39 -30 -9 0
-125 -69 -65 -42 -30 -9 0
-126 -70 -65 -45 -30 -9 0
-127 -67 -66 -36 -33 -9 0
-128 -68 -66 -39 -33 -9 0
-129 -69 -66 -42 -33 -9 0
-130 -70 -66 -45 -33 -9 0
-131 -68 -67 -39 -36 -9 0
-132 -69 -67 -42 -36 -9 0
-133 -70 -67 -45 -36 -9 0
-134 -69 -68 -42 -39 -9 0
-135 -70 -68 -45 -39 -9 0
-136 -70 -69 -45 -42 -9 0
-82 -72 -71 -18 -15 -12 0
-83 -73 -71 -21 -15 -12 0
-84 -74 -71 -24 -15 -12 0
-85 -75 -71 -27 -15 -12 0
-86 -76 -71 -30 -15 -12 0
-87 -77 -71 -33 -15 -12 0
-88 -78 -71 -36 -15 -12 0
-89 -79 -71 -39 -15 -12 0
-90 -80 -71 -42 -15 -12 0
-91 -81 -71 -45 -15 -12 0
-92 -73 -72 -21 -18 -12 0
-93 -74 -72 -24 -18 -12 0
-94 -75 -72 -27 -18 -12 0
-95 -76 -72 -30 -18 -12 0
-96 -77 -72 -33 -18 -12 0
-97 -78 -72 -36 -18 -12 0
-98 -79 -72 -39 -18 -12 0
-99 -80 -72 -42 -18 -12 0
-100 -81 -72 -45 -18 -12 0
-101 -74 -73 -24 -21 -12 0
-102 -75 -73 -27 -21 -12 0
-103 -76 -73 -30 -21 -12 0
-104 -77 -73 -33 -21 -12 0
-105 -78 -73 -36 -21 -12 0
-106 -79 -73 -39 -21 -12 0
-107 -80 -73 -42 -21 -12 0
-108 -81 -73 -45 -21 -12 0
-109 -75 -74 -27 -24 -12 0
-110 -76 -74 -30 -24 -12 0
-111 -77 -74 -33 -24 -12 0
-112 -78 -74 -36 -24 -12 0
-113 -79 -74 -39 -24 -12 0
-114 -80 -74 -42 -24 -12 0
-115 -81 -74 -45 -24 -12 0
-116 -76 -75 -30 -27 -12 0
-117 -77 -75 -33 -27 -12 0
-118 -78 -75 -36 -27 -12 0
-119 -79 -75 -39 -27 -12 0
-120 -80 -75 -42 -27 -12 0
-121 -81 -75 -45 -27 -12 0
-122 -77 -76 -33 -30 -12 0
-123 -78 -76 -36 -30 -12 0
-124 -79 -76 -39 -30 -12 0
-125 -80 -76 -42 -30 -12 0
-126 -81 -76 -45 -30 -12 0
-127 -78 -77 -36 -33 -12 0
-128 -79 -77 -39 -33 -12 0
-129 -80 -77 -42 -33 -12 0
-130 -81 -77 -45 -33 -12 0
-131 -79 -78 -39 -36 -12 0
-132 -80 -78 -42 -36 -12 0
-133 -81 -78 -45 -36 -12 0
-134 -80 -79 -42 -39 -12 0
-135 -81 -79 -45 -39 -12 0
-136 -81 -80 -45 -42 -12 0
-92 -83 -82 -21 -18 -15 0
-93 -84 -82 -24 -18 -15 0
-94 -85 -82 -27 -18 -15 0
-95 -86 -82 -30 -18 -15 0
-96 -87 -82 -33 -18 -15 0
-97 -88 -82 -36 -18 -15 0
-98 -89 -82 -39 -18 -15 0
-99 -90 -82 -42 -18 -15 0
-100 -91 -82 -45 -18 -15 0
-101 -84 -83 -24 -21 -15 0
-102 -85 -83 -27 -21 -15 0
-103 -86 -83 -30 -21 -15 0
-104 -87 -83 -33 -21 -15 0
-105 -88 -83 -36 -21 -15 0
-106 -89 -83 -39 -21 -15 0
-107 -90 -83 -42 -21 -15 0
-108 -91 -83 -45 -21 -15 0
-109 -85 -84 -27 -24 -15 0
-110 -86 -84 -30 -24 -15 0
-111 -87 -84 -33 -24 -15 0
-112 -88 -84 -36 -24 -15 0
-113 -89 -84 -39 -24 -15 0
-114 -90 -84 -42 -24 -15 0
-115 -91 -84 -45 -24 -15 0
-116 -86 -85 -30 -27 -15 0
-117 -87 -85 -33 -27 -15 0
-118 -88 -85 -36 -27 -15 0
-119 -89 -85 -39 -27 -15 0
-120 -90 -85 -42 -27 -15 0
-121 -91 -85 -45 -27 -15 0
-122 -87 -86 -33 -30 -15 0
-123 -88 -86 -36 -30 -15 0
-124 -89 -86 -39 -30 -15 0
-125 -90 -86 -42 -30 -15 0
-126 -91 -86 -45 -30 -15 0
-127 -88 -87 -36 -33 -15 0
-128 -89 -87 -39 -33 -15 0
-129 -90 -87 -42 -33 -15 0
-130 -91 -87 -45 -33 -15 0
-131 -89 -88 -39 -36 -15 0
-132 -90 -88 -42 -36 -15 0
-133 -91 -88 -45 -36 -15 0
-134 -90 -89 -42 -39 -15 0
-135 -91 -89 -45 -39 -15 0
-136 -91 -90 -45 -42 -15 0
-101 -93 -92 -24 -21 -18 0
-102 -94 -92 -27 -21 -18 0
-103 -95 -92 -30 -21 -18 0
-104 -96 -92 -33 -21 -18 0
-105 -97 -92 -36 -21 -18 0
-106 -98 -92 -39 -21 -18 0
-107 -99 -92 -42 -21 -18 0
-108 -100 -92 -45 -21 -18 0
-109 -94 -93 -27 -24 -18 0
-110 -95 -93 -30 -24 -18 0
-111 -96 -93 -33 -24 -18 0
-112 -97 -93 -36 -24 -18 0
-113 -98 -93 -39 -24 -18 0
-114 -99 -93 -42 -24 -18 0
-115 -100 -93 -45 -24 -18 0
-116 -95 -94 -30 -27 -18 0
-117 -96 -94 -33 -27 -18 0
-118 -97 -94 -36 -27 -18 0
-119 -98 -94 -39 -27 -18 0
-120 -99 -94 -42 -27 -18 0
-121 -100 -94 -45 -27 -18 0
-122 -96 -95 -33 -30 -18 0
-123 -97 -95 -36 -30 -18 0
-124 -98 -95 -39 -30 -18 0
-125 -99 -95 -42 -30 -18 0
-126 -100 -95 -45 -30 -18 0
-127 -97 -96 -36 -33 -18 0
-128 -98 -96 -39 -33 -18 0
-129 -99 -96 -42 -33 -18 0
-130 -100 -96 -45 -33 -18 0
-131 -98 -97 -39 -36 -18 0
-132 -99 -97 -42 -36 -18 0
-133 -100 -97 -45 -36 -18 0
-134 -99 -98 -42 -39 -18 0
-135 -100 -98 -45 -39 -18 0
-136 -100 -99 -45 -42 -18 0
-109 -102 -101 -27 -24 -21 0
-110 -103 -101 -30 -24 -21 0
-111 -104 -101 -33 -24 -21 0
-112 -105 -101 -36 -24 -21 0
-113 -106 -101 -39 -24 -21 0
-114 -107 -101 -42 -24 -21 0
-115 -108 -101 -45 -24 -21 0
-116 -103 -102 -30 -27 -21 0
-117 -104 -102 -33 -27 -21 0
-118 -105 -102 -36 -27 -21 0
-119 -106 -102 -39 -27 -21 0
-120 -107 -102 -42 -27 -21 0
-121 -108 -102 -45 -27 -21 0
-122 -104 -103 -33 -30 -21 0
-123 -105 -103 -36 -30 -21 0
-124 -106 -103 -39 -30 -21 0
-125 -107 -103 -42 -30 -21 0
-126 -108 -103 -45 -30 -21 0
-127 -105 -104 -36 -33 -21 0
-128 -106 -104 -39 -33 -21 0
-129 -107 -104 -42 -33 -21 0
-130 -108 -104 -45 -33 -21 0
-131 -106 -105 -39 -36 -21 0
-132 -107 -105 -42 -36 -21 0
-133 -108 -105 -45 -36 -21 0
-134 -107 -106 -42 -39 -21 0
-135 -108 -106 -45 -39 -21 0
-136 -108 -107 -45 -42 -21 0
-116 -110 -109 -30 -27 -24 0
-117 -111 -109 -33 -27 -24 0
-118 -112 -109 -36 -27 -24 0
-119 -113 -109 -39 -27 -24 0
-120 -114 -109 -42 -27 -24 0
-121 -115 -109 -45 -27 -24 0
-122 -111 -110 -33 -30 -24 0
-123 -112 -110 -36 -30 -24 0
-124 -113 -110 -39 -30 -24 0
-125 -114 -110 -42 -30 -24 0
-126 -115 -110 -45 -30 -24 0
-127 -112 -111 -36 -33 -24 0
-128 -113 -111 -39 -33 -24 0
-129 -114 -111 -42 -33 -24 0
-130 -115 -111 -45 -33 -24 0
-131 -113 -112 -39 -36 -24 0
-132 -114 -112 -42 -36 -24 0
-133 -115 -112 -45 -36 -24 0
-134 -114 -113 -42 -39 -24 0
-135 -115 -113 -45 -39 -24 0
-136 -115 -114 -45 -42 -24 0
-122 -117 -116 -33 -30 -27 0
-123 -118 -116 -36 -30 -27 0
-124 -119 -116 -39 -30 -27 0
-125 -120 -116 -42 -30 -27 0
-126 -121 -116 -45 -30 -27 0
-127 -118 -117 -36 -33 -27 0
-128 -119 -117 -39 -33 -27 0
-129 -120 -117 -42 -33 -27 0
-130 -121 -117 -45 -33 -27 0
-131 -119 -118 -39 -36 -27 0
-132 -120 -118 -42 -36 -27 0
-133 -121 -118 -45 -36 -27 0
-134 -120 -119 -42 -39 -27 0
-135 -121 -119 -45 -39 -27 0
-136 -121 -120 -45 -42 -27 0
-127 -123 -122 -36 -33 -30 0
-128 -124 -122 -39 -33 -30 0
-129 -125 -122 -42 -33 -30 0
-130 -126 -122 -45 -33 -30 0
-131 -124 -123 -39 -36 -30 0
-132 -125 -123 -42 -36 -30 0
-133 -126 -123 -45 -36 -30 0
-134 -125 -124 -42 -39 -30 0
-135 -126 -124 -45 -39 -30 0
-136 -126 -125 -45 -42 -30 0
-131 -128 -127 -39 -36 -33 0
-132 -129 -127 -42 -36 -33 0
-133 -130 -127 -45 -36 -33 0
-134 -129 -128 -42 -39 -33 0
-135 -130 -128 -45 -39 -33 0
-136 -130 -129 -45 -42 -33 0
-134 -132 -131 -42 -39 -36 0
-135 -133 -131 -45 -39 -36 0
-136 -133 -132 -45 -42 -36 0
-136 -135 -134 -45 -42 -39 0
-46 -7 -1 -8 -2 -3 0
-47 -10 -1 -11 -2 -3 0
-48 -13 -1 -14 -2 -3 0
-49 -16 -1 -17 -2 -3 0
-50 -19 -1 -20 -2 -3 0
-51 -22 -1 -23 -2 -3 0
-52 -25 -1 -26 -2 -3 0
-53 -28 -1 -29 -2 -3 0
-54 -31 -1 -32 -2 -3 0
-55 -34 -1 -35 -2 -3 0
-56 -37 -1 -38 -2 -3 0
-57 -40 -1 -41 -2 -3 0
-58 -43 -1 -44 -2 -3 0
-59 -10 -7 -11 -8 -3 0
-60 -13 -7 -14 -8 -3 0
-61 -16 -7 -17 -8 -3 0
-62 -19 -7 -20 -8 -3 0
-63 -22 -7 -23 -8 -3 0
-64 -25 -7 -26 -8 -3 0
-65 -28 -7 -29 -8 -3 0
-66 -31 -7 -32 -8 -3 0
-67 -34 -7 -35 -8 -3 0
-68 -37 -7 -38 -8 -3 0
-69 -40 -7 -41 -8 -3 0
-70 -43 -7 -44 -8 -3 0
-71 -13 -10 -14 -11 -3 0
-72 -16 -10 -17 -11 -3 0
-73 -19 -10 -20 -11 -3 0
-74 -22 -10 -23 -11 -3 0
-75 -25 -10 -26 -11 -3 0
-76 -28 -10 -29 -11 -3 0
-77 -31 -10 -32 -11 -3 0
-78 -34 -10 -35 -11 -3 0
-79 -37 -10 -38 -11 -3 0
-80 -40 -10 -41 -11 -3 0
-81 -43 -10 -44 -11 -3 0
-82 -16 -13 -17 -14 -3 0
-83 -19 -13 -20 -14 -3 0
-84 -22 -13 -23 -14 -3 0
-85 -25 -13 -26 -14 -3 0
-86 -28 -13 -29 -14 -3 0
-87 -31 -13 -32 -14 -3 0
-88 -34 -13 -35 -14 -3 0
-89 -37 -13 -38 -14 -3 0
-90 -40 -13 -41 -14 -3 0
-91 -43 -13 -44 -14 -3 0
-92 -19 -16 -20 -17 -3 0
-93 -22 -16 -23 -17 -3 0
-94 -25 -16 -26 -17 -3 0
-95 -28 -16 -29 -17 -3 0
-96 -31 -16 -32 -17 -3 0
-97 -34 -16 -35 -17 -3 0
-98 -37 -16 -38 -17 -3 0
-99 -40 -16 -41 -17 -3 0
-100 -43 -16 -44 -17 -3 0
-101 -22 -19 -23 -20 -3 0
-102 -25 -19 -26 -20 -3 0
-103 -28 -19 -29 -20 -3 0
-104 -31 -19 -32 -20 -3 0
-105 -34 -19 -35 -20 -3 0
-106 -37 -19 -38 -20 -3 0
-107 -40 -19 -41 -20 -3 0
-108 -43 -19 -44 -20 -3 0
-109 -25 -22 -26 -23 -3 0
-110 -28 -22 -29 -23 -3 0
-111 -31 -22 -32 -23 -3 0
-112 -34 -22 -35 -23 -3 0
-113 -37 -22 -38 -23 -3 0
-114 -40 -22 -41 -23 -3 0
-115 -43 -22 -44 -23 -3 0
-116 -28 -25 -29 -26 -3 0
-117 -31 -25 -32 -26 -3 0
-118 -34 -25 -35 -26 -3 0
-119 -37 -25 -38 -26 -3 0
-120 -40 -25 -41 -26 -3 0
-121 -43 -25 -44 -26 -3 0
-122 -31 -28 -32 -29 -3 0
-123 -34 -28 -35 -29 -3 0
-124 -37 -28 -38 -29 -3 0
-125 -40 -28 -41 -29 -3 0
-126 -43 -28 -44 -29 -3 0
-127 -34 -31 -35 -32 -3 0
-128 -37 -31 -38 -32 -3 0
-129 -40 -31 -41 -32 -3 0
-130 -43 -31 -44 -32 -3 0
-131 -37 -34 -38 -35 -3 0
-132 -40 -34 -41 -35 -3 0
-133 -43 -34 -44 -35 -3 0
-134 -40 -37 -41 -38 -3 0
-135 -43 -37 -44 -38 -3 0
-136 -43 -40 -44 -41 -3 0
-59 -47 -46 -11 -8 -2 0
-60 -48 -46 -14 -8 -2 0
-61 -49 -46 -17 -8 -2 0
-62 -50 -46 -20 -8 -2 0
-63 -51 -46 -23 -8 -2 0
-64 -52 -46 -26 -8 -2 0
-65 -53 -46 -29 -8 -2 0
-66 -54 -46 -32 -8 -2 0
-67 -55 -46 -35 -8 -2 0
-68 -56 -46 -38 -8 -2 0
-69 -57 -46 -41 -8 -2 0
-70 -58 -46 -44 -8 -2 0
-71 -48 -47 -14 -11 -2 0
-72 -49 -47 -17 -11 -2 0
-73 -50 -47 -20 -11 -2 0
-74 -51 -47 -23 -11 -2 0
-75 -52 -47 -26 -11 -2 0
-76 -53 -47 -29 -11 -2 0
-77 -54 -47 -32 -11 -2 0
-78 -55 -47 -35 -11 -2 0
-79 -56 -47 -38 -11 -2 0
-80 -57 -47 -41 -11 -2 0
-81 -58 -47 -44 -11 -2 0
-82 -49 -48 -17 -14 -2 0
-83 -50 -48 -20 -14 -2 0
-84 -51 -48 -23 -14 -2 0
-85 -52 -48 -26 -14 -2 0
-86 -53 -48 -29 -14 -2 0
-87 -54 -48 -32 -14 -2 0
-88 -55 -48 -35 -14 -2 0
-89 -56 -48 -38 -14 -2 0
-90 -57 -48 -41 -14 -2 0
-91 -58 -48 -44 -14 -2 0
-92 -50 -49 -20 -17 -2 0
-93 -51 -49 -23 -17 -2 0
-94 -52 -49 -26 -17 -2 0
-95 -53 -49 -29 -17 -2 0
-96 -54 -49 -32 -17 -2 0
-97 -55 -49 -35 -17 -2 0
-98 -56 -49 -38 -17 -2 0
-99 -57 -49 -41 -17 -2 0
-100 -58 -49 -44 -17 -2 0
-101 -51 -50 -23 -20 -2 0
-102 -52 -50 -26 -20 -2 0
-103 -53 -50 -29 -20 -2 0
-104 -54 -50 -32 -20 -2 0
-105 -55 -50 -35 -20 -2 0
-106 -56 -50 -38 -20 -2 0
-107 -57 -50 -41 -20 -2 0
-108 -58 -50 -44 -20 -2 0
-109 -52 -51 -26 -23 -2 0
-110 -53 -51 -29 -23 -2 0
-111 -54 -51 -32 -23 -2 0
-112 -55 -51 -35 -23 -2 0
-113 -56 -51 -38 -23 -2 0
-114 -57 -51 -41 -23 -2 0
-115 -58 -51 -44 -23 -2 0
-116 -53 -52 -29 -26 -2 0
-117 -54 -52 -32 -26 -2 0
-118 -55 -52 -35 -26 -2 0
-119 -56 -52 -38 -26 -2 0
-120 -57 -52 -41 -26 -2 0
-121 -58 -52 -44 -26 -2 0
-122 -54 -53 -32 -29 -2 0
-123 -55 -53 -35 -29 -2 0
-124 -56 -53 -38 -29 -2 0
-125 -57 -53 -41 -29 -2 0
-126 -58 -53 -44 -29 -2 0
-127 -55 -54 -35 -32 -2 0
-128 -56 -54 -38 -32 -2 0
-129 -57 -54 -41 -32 -2 0
-130 -58 -54 -44 -32 -2 0
-131 -56 -55 -38 -35 -2 0
-132 -57 -55 -41 -35 -2 0
-133 -58 -55 -44 -35 -2 0
-134 -57 -56 -41 -38 -2 0
-135 -58 -56 -44 -38 -2 0
-136 -58 -57 -44 -41 -2 0
-71 -60 -59 -14 -11 -8 0
-72 -61 -59 -17 -11 -8 0
-73 -62 -59 -20 -11 -8 0
-74 -63 -59 -23 -11 -8 0
-75 -64 -59 -26 -11 -8 0
-76 -65 -59 -29 -11 -8 0
-77 -66 -59 -32 -11 -8 0
-78 -67 -59 -35 -11 -8 0
-79 -68 -59 -38 -11 -8 0
-80 -69 -59 -41 -11 -8 0
-81 -70 -59 -44 -11 -8 0
-82 -61 -60 -17 -14 -8 0
-83 -62 -60 -20 -14 -8 0
-84 -63 -60 -23 -14 -8 0
-85 -64 -60 -26 -14 -8 0
-86 -65 -60 -29 -14 -8 0
-87 -66 -60 -32 -14 -8 0
-88 -67 -60 -35 -14 -8 0
-89 -68 -60 -38 -14 -8 0
-90 -69 -60 -41 -14 -8 0
-91 -70 -60 -44 -14 -8 0
-92 -62 -61 -20 -17 -8 0
-93 -63 -61 -23 -17 -8 0
-94 -64 -61 -26 -17 -8 0
-95 -65 -61 -29 -17 -8 0
-96 -66 -61 -32 -17 -8 0
-97 -67 -61 -35 -17 -8 0
-98 -68 -61 -38 -17 -8 0
-99 -69 -61 -41 -17 -8 0
-100 -70 -61 -44 -17 -8 0
-101 -63 -62 -23 -20 -8 0
-102 -64 -62 -26 -20 -8 0
-103 -65 -62 -29 -20 -8 0
-104 -66 -62 -32 -20 -8 0
-105 -67 -62 -35 -20 -8 0
-106 -68 -62 -38 -20 -8 0
-107 -69 -62 -41 -20 -8 0
-108 -70 -62 -44 -20 -8 0
-109 -64 -63 -26 -23 -8 0
-110 -65 -63 -29 -23 -8 0
-111 -66 -63 -32 -23 -8 0
-112 -67 -63 -35 -23 -8 0
-113 -68 -63 -38 -23 -8 0
-114 -69 -63 -41 -23 -8 0
-115 -70 -63 -44 -23 -8 0
-116 -65 -64 -29 -26 -8 0
-117 -66 -64 -32 -26 -8 0
-118 -67 -64 -35 -26 -8 0
-119 -68 -64 -38 -26 -8 0
-120 -69 -64 -41 -26 -8 0
-121 -70 -64 -44 -26 -8 0
-122 -66 -65 -32 -29 -8 0
-123 -67 -65 -35 -29 -8 0
-124 -68 -65 -38 -29 -8 0
-125 -69 -65 -41 -29 -8 0
-126 -70 -65 -44 -29 -8 0
-127 -67 -66 -35 -32 -8 0
-128 -68 -66 -38 -32 -8 0
-129 -69 -66 -41 -32 -8 0
-130 -70 -66 -44 -32 -8 0
-131 -68 -67 -38 -35 -8 0
-132 -69 -67 -41 -35 -8 0
-133 -70 -67 -44 -35 -8 0
-134 -69 -68 -41 -38 -8 0
-135 -70 -68 -44 -38 -8 0
-136 -70 -69 -44 -41 -8 0
-82 -72 -71 -17 -14 -11 0
-83 -73 -71 -20 -14 -11 0
-84 -74 -71 -23 -14 -11 0
-85 -75 -71 -26 -14 -11 0
-86 -76 -71 -29 -14 -11 0
-87 -77 -71 -32 -14 -11 0
-88 -78 -71 -35 -14 -11 0
-89 -79 -71 -38 -14 -11 0
-90 -80 -71 -41 -14 -11 0
-91 -81 -71 -44 -14 -11 0
-92 -73 -72 -20 -17 -11 0
-93 -74 -72 -23 -17 -11 0
-94 -75 -72 -26 -17 -11 0
-95 -76 -72 -29 -17 -11 0
-96 -77 -72 -32 -17 -11 0
-97 -78 -72 -35 -17 -11 0
-98 -79 -72 -38 -17 -11 0
-99 -80 -72 -41 -17 -11 0
-100 -81 -72 -44 -17 -11 0
-101 -74 -73 -23 -20 -11 0
-102 -75 -73 -26 -20 -11 0
-103 -76 -73 -29 -20 -11 0
-104 -77 -73 -32 -20 -11 0
-105 -78 -73 -35 -20 -11 0
-106 -79 -73 -38 -20 -11 0
-107 -80 -73 -41 -20 -11 0
-108 -81 -73 -44 -20 -11 0
-109 -75 -74 -26 -23 -11 0
-110 -76 -74 -29 -23 -11 0
-111 -77 -74 -32 -23 -11 0
-112 -78 -74 -35 -23 -11 0
-113 -79 -74 -38 -23 -11 0
-114 -80 -74 -41 -23 -11 0
-115 -81 -74 -44 -23 -11 0
-116 -76 -75 -29 -26 -11 0
-117 -77 -75 -32 -26 -11 0
-118 -78 -75 -35 -26 -11 0
-119 -79 -75 -38 -26 -11 0
-120 -80 -75 -41 -26 -11 0
-121 -81 -75 -44 -26 -11 0
-122 -77 -76 -32 -29 -11 0
-123 -78 -76 -35 -29 -11 0
-124 -79 -76 -38 -29 -11 0
-125 -80 -76 -41 -29 -11 0
-126 -81 -76 -44 -29 -11 0
-127 -78 -77 -35 -32 -11 0
-128 -79 -77 -38 -32 -11 0
-129 -80 -77 -41 -32 -11 0
-130 -81 -77 -44 -32 -11 0
-131 -79 -78 -38 -35 -11 0
-132 -80 -78 -41 -35 -11 0
-133 -81 -78 -44 -35 -11 0
-134 -80 -79 -41 -38 -11 0
-135 -81 -79 -44 -38 -11 0
-136 -81 -80 -44 -41 -11 0
-92 -83 -82 -20 -17 -14 0
-93 -84 -82 -23 -17 -14 0
-94 -85 -82 -26 -17 -14 0
-95 -86 -82 -29 -17 -14 0
-96 -87 -82 -32 -17 -14 0
-97 -88 -82 -35 -17 -14 0
-98 -89 -82 -38 -17 -14 0
-99 -90 -82 -41 -17 -14 0
-100 -91 -82 -44 -17 -14 0
-101 -84 -83 -23 -20 -14 0
-102 -85 -83 -26 -20 -14 0
-103 -86 -83 -29 -20 -14 0
-104 -87 -83 -32 -20 -14 0
-105 -88 -83 -35 -20 -14 0
-106 -89 -83 -38 -20 -14 0
-107 -90 -83 -41 -20 -14 0
-108 -91 -83 -44 -20 -14 0
-109 -85 -84 -26 -23 -14 0
-110 -86 -84 -29 -23 -14 0
-111 -87 -84 -32 -23 -14 0
-112 -88 -84 -35 -23 -14 0
-113 -89 -84 -38 -23 -14 0
-114 -90 -84 -41 -23 -14 0
-115 -91 -84 -44 -23 -14 0
-116 -86 -85 -29 -26 -14 0
-117 -87 -85 -32 -26 -14 0
-118 -88 -85 -35 -26 -14 0
-119 -89 -85 -38 -26 -14 0
-120 -90 -85 -41 -26 -14 0
-121 -91 -85 -44 -26 -14 0
-122 -87 -86 -32 -29 -14 0
-123 -88 -86 -35 -29 -14 0
-124 -89 -86 -38 -29 -14 0
-125 -90 -86 -41 -29 -14 0
-126 -91 -86 -44 -29 -14 0
-127 -88 -87 -35 -32 -14 0
-128 -89 -87 -38 -32 -14 0
-129 -90 -87 -41 -32 -14 0
-130 -91 -87 -44 -32 -14 0
-131 -89 -88 -38 -35 -14 0
-132 -90 -88 -41 -35 -14 0
-133 -91 -88 -44 -35 -14 0
-134 -90 -89 -41 -38 -14 0
-135 -91 -89 -44 -38 -14 0
-136 -91 -90 -44 -41 -14 0
-101 -93 -92 -23 -20 -17 0
-102 -94 -92 -26 -20 -17 0
-103 -95 -92 -29 -20 -17 0
-104 -96 -92 -32 -20 -17 0
-105 -97 -92 -35 -20 -17 0
-106 -98 -92 -38 -20 -17 0
-107 -99 -92 -41 -20 -17 0
-108 -100 -92 -44 -20 -17 0
-109 -94 -93 -26 -23 -17 0
-110 -95 -93 -29 -23 -17 0
-111 -96 -93 -32 -23 -17 0
-112 -97 -93 -35 -23 -17 0
-113 -98 -93 -38 -23 -17 0
-114 -99 -93 -41 -23 -17 0
-115 -100 -93 -44 -23 -17 0
-116 -95 -94 -29 -26 -17 0
-117 -96 -94 -32 -26 -17 0
-118 -97 -94 -35 -26 -17 0
-119 -98 -94 -38 -26 -17 0
-120 -99 -94 -41 -26 -17 0
-121 -100 -94 -44 -26 -17 0
-122 -96 -95 -32 -29 -17 0
-123 -97 -95 -35 -29 -17 0
-124 -98 -95 -38 -29 -17 0
-125 -99 -95 -41 -29 -17 0
-126 -100 -95 -44 -29 -17 0
-127 -97 -96 -35 -32 -17 0
-128 -98 -96 -38 -32 -17 0
-129 -99 -96 -41 -32 -17 0
-130 -100 -96 -44 -32 -17 0
-131 -98 -97 -38 -35 -17 0
-132 -99 -97 -41 -35 -17 0
-133 -100 -97 -44 -35 -17 0
-134 -99 -98 -41 -38 -17 0
-135 -100 -98 -44 -38 -17 0
-136 -100 -99 -44 -41 -17 0
-109 -102 -101 -26 -23 -20 0
-110 -103 -101 -29 -23 -20 0
-111 -104 -101 -32 -23 -20 0
-112 -105 -101 -35 -23 -20 0
-113 -106 -101 -38 -23 -20 0
-114 -107 -101 -41 -23 -20 0
-115 -108 -101 -44 -23 -20 0
-116 -103 -102 -29 -26 -20 0
-117 -104 -102 -32 -26 -20 0
-118 -105 -102 -35 -26 -20 0
-119 -106 -102 -38 -26 -20 0
-120 -107 -102 -41 -26 -20 0
-121 -108 -102 -44 -26 -20 0
-122 -104 -103 -32 -29 -20 0
-123 -105 -103 -35 -29 -20 0
-124 -106 -103 -38 -29 -20 0
-125 -107 -103 -41 -29 -20 0
-126 -108 -103 -44 -29 -20 0
-127 -105 -104 -35 -32 -20 0
-128 -106 -104 -38 -32 -20 0
-129 -107 -104 -41 -32 -20 0
-130 -108 -104 -44 -32 -20 0
-131 -106 -105 -38 -35 -20 0
-132 -107 -105 -41 -35 -20 0
-133 -108 -105 -44 -35 -20 0
-134 -107 -106 -41 -38 -20 0
-135 -108 -106 -44 -38 -20 0
-136 -108 -107 -44 -41 -20 0
-116 -110 -109 -29 -26 -23 0
-117 -111 -109 -32 -26 -23 0
-118 -112 -109 -35 -26 -23 0
-119 -113 -109 -38 -26 -23 0
-120 -114 -109 -41 -26 -23 0
-121 -115 -109 -44 -26 -23 0
-122 -111 -110 -32 -29 -23 0
-123 -112 -110 -35 -29 -23 0
-124 -113 -110 -38 -29 -23 0
-125 -114 -110 -41 -29 -23 0
-126 -115 -110 -44 -29 -23 0
-127 -112 -111 -35 -32 -23 0
-128 -113 -111 -38 -32 -23 0
-129 -114 -111 -41 -32 -23 0
-130 -115 -111 -44 -32 -23 0
-131 -113 -112 -38 -35 -23 0
-132 -114 -112 -41 -35 -23 0
-133 -115 -112 -44 -35 -23 0
-134 -114 -113 -41 -38 -23 0
-135 -115 -113 -44 -38 -23 0
-136 -115 -114 -44 -41 -23 0
-122 -117 -116 -32 -29 -26 0
-123 -118 -116 -35 -29 -26 0
-124 -119 -116 -38 -29 -26 0
-125 -120 -116 -41 -29 -26 0
-126 -121 -116 -44 -29 -26 0
-127 -118 -117 -35 -32 -26 0
-128 -119 -117 -38 -32 -26 0
-129 -120 -117 -41 -32 -26 0
-130 -121 -117 -44 -32 -26 0
-131 -119 -118 -38 -35 -26 0
-132 -120 -118 -41 -35 -26 0
-133 -121 -118 -44 -35 -26 0
-134 -120 -119 -41 -38 -26 0
-135 -121 -119 -44 -38 -26 0
-136 -121 -120 -44 -41 -26 0
-127 -123 -122 -35 -32 -29 0
-128 -124 -122 -38 -32 -29 0
-129 -125 -122 -41 -32 -29 0
-130 -126 -122 -44 -32 -29 0
-131 -124 -123 -38 -35 -29 0
-132 -125 -123 -41 -35 -29 0
-133 -126 -123 -44 -35 -29 0
-134 -125 -124 -41 -38 -29 0
-135 -126 -124 -44 -38 -29 0
-136 -126 -125 -44 -41 -29 0
-131 -128 -127 -38 -35 -32 0
-132 -129 -127 -41 -35 -32 0
-133 -130 -127 -44 -35 -32 0
-134 -129 -128 -41 -38 -32 0
-135 -130 -128 -44 -38 -32 0
-136 -130 -129 -44 -41 -32 0
-134 -132 -131 -41 -38 -35 0
-135 -133 -131 -44 -38 -35 0
-136 -133 -132 -44 -41 -35 0
-136 -135 -134 -44 -41 -38 0
-59 -47 -46 -10 -7 -1 0
-60 -48 -46 -13 -7 -1 0
-61 -49 -46 -16 -7 -1 0
-62 -50 -46 -19 -7 -1 0
-63 -51 -46 -22 -7 -1 0
-64 -52 -46 -25 -7 -1 0
-65 -53 -46 -28 -7 -1 0
-66 -54 -46 -31 -7 -1 0
-67 -55 -46 -34 -7 -1 0
-68 -56 -46 -37 -7 -1 0
-69 -57 -46 -40 -7 -1 0
-70 -58 -46 -43 -7 -1 0
-71 -48 -47 -13 -10 -1 0
-72 -49 -47 -16 -10 -1 0
-73 -50 -47 -19 -10 -1 0
-74 -51 -47 -22 -10 -1 0
-75 -52 -47 -25 -10 -1 0
-76 -53 -47 -28 -10 -1 0
-77 -54 -47 -31 -10 -1 0
-78 -55 -47 -34 -10 -1 0
-79 -56 -47 -37 -10 -1 0
-80 -57 -47 -40 -10 -1 0
-81 -58 -47 -43 -10 -1 0
-82 -49 -48 -16 -13 -1 0
-83 -50 -48 -19 -13 -1 0
-84 -51 -48 -22 -13 -1 0
-85 -52 -48 -25 -13 -1 0
-86 -53 -48 -28 -13 -1 0
-87 -54 -48 -31 -13 -1 0
-88 -55 -48 -34 -13 -1 0
-89 -56 -48 -37 -13 -1 0
-90 -57 -48 -40 -13 -1 0
-91 -58 -48 -43 -13 -1 0
-92 -50 -49 -19 -16 -1 0
-93 -51 -49 -22 -16 -1 0
-94 -52 -49 -25 -16 -1 0
-95 -53 -49 -28 -16 -1 0
-96 -54 -49 -31 -16 -1 0
-97 -55 -49 -34 -16 -1 0
-98 -56 -49 -37 -16 -1 0
-99 -57 -49 -40 -16 -1 0
-100 -58 -49 -43 -16 -1 0
-101 -51 -50 -22 -19 -1 0
-102 -52 -50 -25 -19 -1 0
-103 -53 -50 -28 -19 -1 0
-104 -54 -50 -31 -19 -1 0
-105 -55 -50 -34 -19 -1 0
-106 -56 -50 -37 -19 -1 0
-107 -57 -50 -40 -19 -1 0
-108 -58 -50 -43 -19 -1 0
-109 -52 -51 -25 -22 -1 0
-110 -53 -51 -28 -22 -1 0
-111 -54 -51 -31 -22 -1 0
-112 -55 -51 -34 -22 -1 0
-113 -56 -51 -37 -22 -1 0
-114 -57 -51 -40 -22 -1 0
-115 -58 -51 -43 -22 -1 0
-116 -53 -52 -28 -25 -1 0
-117 -54 -52 -31 -25 -1 0
-118 -55 -52 -34 -25 -1 0
-119 -56 -52 -37 -25 -1 0
-120 -57 -52 -40 -25 -1 0
-121 -58 -52 -43 -25 -1 0
-122 -54 -53 -31 -28 -1 0
-123 -55 -53 -34 -28 -1 0
-124 -56 -53 -37 -28 -1 0
-125 -57 -53 -40 -28 -1 0
-126 -58 -53 -43 -28 -1 0
-127 -55 -54 -34 -31 -1 0
-128 -56 -54 -37 -31 -1 0
-129 -57 -54 -40 -31 -1 0
-130 -58 -54 -43 -31 -1 0
-131 -56 -55 -37 -34 -1 0
-132 -57 -55 -40 -34 -1 0
-133 -58 -55 -43 -34 -1 0
-134 -57 -56 -40 -37 -1 0
-135 -58 -56 -43 -37 -1 0
-136 -58 -57 -43 -40 -1 0
-71 -60 -59 -13 -10 -7 0
-72 -61 -59 -16 -10 -7 0
-73 -62 -59 -19 -10 -7 0
-74 -63 -59 -22 -10 -7 0
-75 -64 -59 -25 -10 -7 0
-76 -65 -59 -28 -10 -7 0
-77 -66 -59 -31 -10 -7 0
-78 -67 -59 -34 -10 -7 0
-79 -68 -59 -37 -10 -7 0
-80 -69 -59 -40 -10 -7 0
-81 -70 -59 -43 -10 -7 0
-82 -61 -60 -16 -13 -7 0
-83 -62 -60 -19 -13 -7 0
-84 -63 -60 -22 -13 -7 0
-85 -64 -60 -25 -13 -7 0
-86 -65 -60 -28 -13 -7 0
-87 -66 -60 -31 -13 -7 0
-88 -67 -60 -34 -13 -7 0
-89 -68 -60 -37 -13 -7 0
-90 -69 -60 -40 -13 -7 0
-91 -70 -60 -43 -13 -7 0
-92 -62 -61 -19 -16 -7 0
-93 -63 -61 -22 -16 -7 0
-94 -64 -61 -25 -16 -7 0
-95 -65 -61 -28 -16 -7 0
-96 -66 -61 -31 -16 -7 0
-97 -67 -61 -34 -16 -7 0
-98 -68 -61 -37 -16 -7 0
-99 -69 -61 -40 -16 -7 0
-100 -70 -61 -43 -16 -7 0
-101 -63 -62 -22 -19 -7 0
-102 -64 -62 -25 -19 -7 0
-103 -65 -62 -28 -19 -7 0
-104 -66 -62 -31 -19 -7 0
-105 -67 -62 -34 -19 -7 0
-106 -68 -62 -37 -19 -7 0
-107 -69 -62 -40 -19 -7 0
-108 -70 -62 -43 -19 -7 0
-109 -64 -63 -25 -22 -7 0
-110 -65 -63 -28 -22 -7 0
-111 -66 -63 -31 -22 -7 0
-112 -67 -63 -34 -22 -7 0
-113 -68 -63 -37 -22 -7 0
-114 -69 -63 -40 -22 -7 0
-115 -70 -63 -43 -22 -7 0
-116 -65 -64 -28 -25 -7 0
-117 -66 -64 -31 -25 -7 0
-118 -67 -64 -34 -25 -7 0
-119 -68 -64 -37 -25 -7 0
-120 -69 -64 -40 -25 -7 0
-121 -70 -64 -43 -25 -7 0
-122 -66 -65 -31 -28 -7 0
-123 -67 -65 -34 -28 -7 0
-124 -68 -65 -37 -28 -7 0
-125 -69 -65 -40 -28 -7 0
-126 -70 -65 -43 -28 -7 0
-127 -67 -66 -34 -31 -7 0
-128 -68 -66 -37 -31 -7 0
-129 -69 -66 -40 -31 -7 0
-130 -70 -66 -43 -31 -7 0
-131 -68 -67 -37 -34 -7 0
-132 -69 -67 -40 -34 -7 0
-133 -70 -67 -43 -34 -7 0
-134 -69 -68 -40 -37 -7 0
-135 -70 -68 -43 -37 -7 0
-136 -70 -69 -43 -40 -7 0
-82 -72 -71 -16 -13 -10 0
-83 -73 -71 -19 -13 -10 0
-84 -74 -71 -22 -13 -10 0
-85 -75 -71 -25 -13 -10 0
-86 -76 -71 -28 -13 -10 0
-87 -77 -71 -31 -13 -10 0
-88 -78 -71 -34 -13 -10 0
-89 -79 -71 -37 -13 -10 0
-90 -80 -71 -40 -13 -10 0
-91 -81 -71 -43 -13 -10 0
-92 -73 -72 -19 -16 -10 0
-93 -74 -72 -22 -16 -10 0
-94 -75 -72 -25 -16 -10 0
-95 -76 -72 -28 -16 -10 0
-96 -77 -72 -31 -16 -10 0
-97 -78 -72 -34 -16 -10 0
-98 -79 -72 -37 -16 -10 0
-99 -80 -72 -40 -16 -10 0
-100 -81 -72 -43 -16 -10 0
-101 -74 -73 -22 -19 -10 0
-102 -75 -73 -25 -19 -10 0
-103 -76 -73 -28 -19 -10 0
-104 -77 -73 -31 -19 -10 0
-105 -78 -73 -34 -19 -10 0
-106 -79 -73 -37 -19 -10 0
-107 -80 -73 -40 -19 -10 0
-108 -81 -73 -43 -19 -10 0
-109 -75 -74 -25 -22 -10 0
-110 -76 -74 -28 -22 -10 0
-111 -77 -74 -31 -22 -10 0
-112 -78 -74 -34 -22 -10 0
-113 -79 -74 -37 -22 -10 0
-114 -80 -74 -40 -22 -10 0
-115 -81 -74 -43 -22 -10 0
-116 -76 -75 -28 -25 -10 0
-117 -77 -75 -31 -25 -10 0
-118 -78 -75 -34 -25 -10 0
-119 -79 -75 -37 -25 -10 0
-120 -80 -75 -40 -25 -10 0
-121 -81 -75 -43 -25 -10 0
-122 -77 -76 -31 -28 -10 0
-123 -78 -76 -34 -28 -10 0
-124 -79 -76 -37 -28 -10 0
-125 -80 -76 -40 -28 -10 0
-126 -81 -76 -43 -28 -10 0
-127 -78 -77 -34 -31 -10 0
-128 -79 -77 -37 -31 -10 0
-129 -80 -77 -40 -31 -10 0
-130 -81 -77 -43 -31 -10 0
-131 -79 -78 -37 -34 -10 0
-132 -80 -78 -40 -34 -10 0
-133 -81 -78 -43 -34 -10 0
-134 -80 -79 -40 -37 -10 0
-135 -81 -79 -43 -37 -10 0
-136 -81 -80 -43 -40 -10 0
-92 -83 -82 -19 -16 -13 0
-93 -84 -82 -22 -16 -13 0
-94 -85 -82 -25 -16 -13 0
-95 -86 -82 -28 -16 -13 0
-96 -87 -82 -31 -16 -13 0
-97 -88 -82 -34 -16 -13 0
-98 -89 -82 -37 -16 -13 0
-99 -90 -82 -40 -16 -13 0
-100 -91 -82 -43 -16 -13 0
-101 -84 -83 -22 -19 -13 0
-102 -85 -83 -25 -19 -13 0
-103 -86 -83 -28 -19 -13 0
-104 -87 -83 -31 -19 -13 0
-105 -88 -83 -34 -19 -13 0
-106 -89 -83 -37 -19 -13 0
-107 -90 -83 -40 -19 -13 0
-108 -91 -83 -43 -19 -13 0
-109 -85 -84 -25 -22 -13 0
-110 -86 -84 -28 -22 -13 0
-111 -87 -84 -31 -22 -13 0
-112 -88 -84 -34 -22 -13 0
-113 -89 -84 -37 -22 -13 0
-114 -90 -84 -40 -22 -13 0
-115 -91 -84 -43 -22 -13 0
-116 -86 -85 -28 -25 -13 0
-117 -87 -85 -31 -25 -13 0
-118 -88 -85 -34 -25 -13 0
-119 -89 -85 -37 -25 -13 0
-120 -90 -85 -40 -25 -13 0
-121 -91 -85 -43 -25 -13 0
-122 -87 -86 -31 -28 -13 0
-123 -88 -86 -34 -28 -13 0
-124 -89 -86 -37 -28 -13 0
-125 -90 -86 -40 -28 -13 0
-126 -91 -86 -43 -28 -13 0
-127 -88 -87 -34 -31 -13 0
-128 -89 -87 -37 -31 -13 0
-129 -90 -87 -40 -31 -13 0
-130 -91 -87 -43 -31 -13 0
-131 -89 -88 -37 -34 -13 0
-132 -90 -88 -40 -34 -13 0
-133 -91 -88 -43 -34 -13 0
-134 -90 -89 -40 -37 -13 0
-135 -91 -89 -43 -37 -13 0
-136 -91 -90 -43 -40 -13 0
-101 -93 -92 -22 -19 -16 0
-102 -94 -92 -25 -19 -16 0
-103 -95 -92 -28 -19 -16 0
-104 -96 -92 -31 -19 -16 0
-105 -97 -92 -34 -19 -16 0
-106 -98 -92 -37 -19 -16 0
-107 -99 -92 -40 -19 -16 0
-108 -100 -92 -43 -19 -16 0
-109 -94 -93 -25 -22 -16 0
-110 -95 -93 -28 -22 -16 0
-111 -96 -93 -31 -22 -16 0
-112 -97 -93 -34 -22 -16 0
-113 -98 -93 -37 -22 -16 0
-114 -99 -93 -40 -22 -16 0
-115 -100 -93 -43 -22 -16 0
-116 -95 -94 -28 -25 -16 0
-117 -96 -94 -31 -25 -16 0
-118 -97 -94 -34 -25 -16 0
-119 -98 -94 -37 -25 -16 0
-120 -99 -94 -40 -25 -16 0
-121 -100 -94 -43 -25 -16 0
-122 -96 -95 -31 -28 -16 0
-123 -97 -95 -34 -28 -16 0
-124 -98 -95 -37 -28 -16 0
-125 -99 -95 -40 -28 -16 0
-126 -100 -95 -43 -28 -16 0
-127 -97 -96 -34 -31 -16 0
-128 -98 -96 -37 -31 -16 0
-129 -99 -96 -40 -31 -16 0
-130 -100 -96 -43 -31 -16 0
-131 -98 -97 -37 -34 -16 0
-132 -99 -97 -40 -34 -16 0
-133 -100 -97 -43 -34 -16 0
-134 -99 -98 -40 -37 -16 0
-135 -100 -98 -43 -37 -16 0
-136 -100 -99 -43 -40 -16 0
-109 -102 -101 -25 -22 -19 0
-110 -103 -101 -28 -22 -19 0
-111 -104 -101 -31 -22 -19 0
-112 -105 -101 -34 -22 -19 0
-113 -106 -101 -37 -22 -19 0
-114 -107 -101 -40 -22 -19 0
-115 -108 -101 -43 -22 -19 0
-116 -103 -102 -28 -25 -19 0
-117 -104 -102 -31 -25 -19 0
-118 -105 -102 -34 -25 -19 0
-119 -106 -102 -37 -25 -19 0
-120 -107 -102 -40 -25 -19 0
-121 -108 -102 -43 -25 -19 0
-122 -104 -103 -31 -28 -19 0
-123 -105 -103 -34 -28 -19 0
-124 -106 -103 -37 -28 -19 0
-125 -107 -103 -40 -28 -19 0
-126 -108 -103 -43 -28 -19 0
-127 -105 -104 -34 -31 -19 0
-128 -106 -104 -37 -31 -19 0
-129 -107 -104 -40 -31 -19 0
-130 -108 -104 -43 -31 -19 0
-131 -106 -105 -37 -34 -19 0
-132 -107 -105 -40 -34 -19 0
-133 -108 -105 -43 -34 -19 0
-134 -107 -106 -40 -37 -19 0
-135 -108 -106 -43 -37 -19 0
-136 -108 -107 -43 -40 -19 0
-116 -110 -109 -28 -25 -22 0
-117 -111 -109 -31 -25 -22 0
-118 -112 -109 -34 -25 -22 0
-119 -113 -109 -37 -25 -22 0
-120 -114 -109 -40 -25 -22 0
-121 -115 -109 -43 -25 -22 0
-122 -111 -110 -31 -28 -22 0
-123 -112 -110 -34 -28 -22 0
-124 -113 -110 -37 -28 -22 0
-125 -114 -110 -40 -28 -22 0
-126 -115 -110 -43 -28 -22 0
-127 -112 -111 -34 -31 -22 0
-128 -113 -111 -37 -31 -22 0
-129 -114 -111 -40 -31 -22 0
-130 -115 -111 -43 -31 -22 0
-131 -113 -112 -37 -34 -22 0
-132 -114 -112 -40 -34 -22 0
-133 -115 -112 -43 -34 -22 0
-134 -114 -113 -40 -37 -22 0
-135 -115 -113 -43 -37 -22 0
-136 -115 -114 -43 -40 -22 0
-122 -117 -116 -31 -28 -25 0
-123 -118 -116 -34 -28 -25 0
-124 -119 -116 -37 -28 -25 0
-125 -120 -116 -40 -28 -25 0
-126 -121 -116 -43 -28 -25 0
-127 -118 -117 -34 -31 -25 0
-128 -119 -117 -37 -31 -25 0
-129 -120 -117 -40 -31 -25 0
-130 -121 -117 -43 -31 -25 0
-131 -119 -118 -37 -34 -25 0
-132 -120 -118 -40 -34 -25 0
-133 -121 -118 -43 -34 -25 0
-134 -120 -119 -40 -37 -25 0
-135 -121 -119 -43 -37 -25 0
-136 -121 -120 -43 -40 -25 0
-127 -123 -122 -34 -31 -28 0
-128 -124 -122 -37 -31 -28 0
-129 -125 -122 -40 -31 -28 0
-130 -126 -122 -43 -31 -28 0
-131 -124 -123 -37 -34 -28 0
-132 -125 -123 -40 -34 -28 0
-133 -126 -123 -43 -34 -28 0
-134 -125 -124 -40 -37 -28 0
-135 -126 -124 -43 -37 -28 0
-136 -126 -125 -43 -40 -28 0
-131 -128 -127 -37 -34 -31 0
-132 -129 -127 -40 -34 -31 0
-133 -130 -127 -43 -34 -31 0
-134 -129 -128 -40 -37 -31 0
-135 -130 -128 -43 -37 -31 0
-136 -130 -129 -43 -40 -31 0
-134 -132 -131 -40 -37 -34 0
-135 -133 -131 -43 -37 -34 0
-136 -133 -132 -43 -40 -34 0
-136 -135 -134 -43 -40 -37 0
-71 -60 -59 -48 -47 -46 0
-72 -61 -59 -49 -47 -46 0
-73 -62 -59 -50 -47 -46 0
-74 -63 -59 -51 -47 -46 0
-75 -64 -59 -52 -47 -46 0
-76 -65 -59 -53 -47 -46 0
-77 -66 -59 -54 -47 -46 0
-78 -67 -59 -55 -47 -46 0
-79 -68 -59 -56 -47 -46 0
-80 -69 -59 -57 -47 -46 0
-81 -70 -59 -58 -47 -46 0
-82 -61 -60 -49 -48 -46 0
-83 -62 -60 -50 -48 -46 0
-84 -63 -60 -51 -48 -46 0
-85 -64 -60 -52 -48 -46 0
-86 -65 -60 -53 -48 -46 0
-87 -66 -60 -54 -48 -46 0
-88 -67 -60 -55 -48 -46 0
-89 -68 -60 -56 -48 -46 0
-90 -69 -60 -57 -48 -46 0
-91 -70 -60 -58 -48 -46 0
-92 -62 -61 -50 -49 -46 0
-93 -63 -61 -51 -49 -46 0
-94 -64 -61 -52 -49 -46 0
-95 -65 -61 -53 -49 -46 0
-96 -66 -61 -54 -49 -46 0
-97 -67 -61 -55 -49 -46 0
-98 -68 -61 -56 -49 -46 0
-99 -69 -61 -57 -49 -46 0
-100 -70 -61 -58 -49 -46 0
-101 -63 -62 -51 -50 -46 0
-102 -64 -62 -52 -50 -46 0
-103 -65 -62 -53 -50 -46 0
-104 -66 -62 -54 -50 -46 0
-105 -67 -62 -55 -50 -46 0
-106 -68 -62 -56 -50 -46 0
-107 -69 -62 -57 -50 -46 0
-108 -70 -62 -58 -50 -46 0
-109 -64 -63 -52 -51 -46 0
-110 -65 -63 -53 -51 -46 0
-111 -66 -63 -54 -51 -46 0
-112 -67 -63 -55 -51 -46 0
-113 -68 -63 -56 -51 -46 0
-114 -69 -63 -57 -51 -46 0
-115 -70 -63 -58 -51 -46 0
-116 -65 -64 -53 -52 -46 0
-117 -66 -64 -54 -52 -46 0
-118 -67 -64 -55 -52 -46 0
-119 -68 -64 -56 -52 -46 0
-120 -69 -64 -57 -52 -46 0
-121 -70 -64 -58 -52 -46 0
-122 -66 -65 -54 -53 -46 0
-123 -67 -65 -55 -53 -46 0
-124 -68 -65 -56 -53 -46 0
-125 -69 -65 -57 -53 -46 0
-126 -70 -65 -58 -53 -46 0
-127 -67 -66 -55 -54 -46 0
-128 -68 -66 -56 -54 -46 0
-129 -69 -66 -57 -54 -46 0
-130 -70 -66 -58 -54 -46 0
-131 -68 -67 -56 -55 -46 0
-132 -69 -67 -57 -55 -46 0
-133 -70 -67 -58 -55 -46 0
-134 -69 -68 -57 -56 -46 0
-135 -70 -68 -58 -56 -46 0
-136 -70 -69 -58 -57 -46 0
-82 -72 -71 -49 -48 -47 0
-83 -73 -71 -50 -48 -47 0
-84 -74 -71 -51 -48 -47 0
-85 -75 -71 -52 -48 -47 0
-86 -76 -71 -53 -48 -47 0
-87 -77 -71 -54 -48 -47 0
-88 -78 -71 -55 -48 -47 0
-89 -79 -71 -56 -48 -47 0
-90 -80 -71 -57 -48 -47 0
-91 -81 -71 -58 -48 -47 0
-92 -73 -72 -50 -49 -47 0
-93 -74 -72 -51 -49 -47 0
-94 -75 -72 -52 -49 -47 0
-95 -76 -72 -53 -49 -47 0
-96 -77 -72 -54 -49 -47 0
-97 -78 -72 -55 -49 -47 0
-98 -79 -72 -56 -49 -47 0
-99 -80 -72 -57 -49 -47 0
-100 -81 -72 -58 -49 -47 0
-101 -74 -73 -51 -50 -47 0
-102 -75 -73 -52 -50 -47 0
-103 -76 -73 -53 -50 -47 0
-104 -77 -73 -54 -50 -47 0
-105 -78 -73 -55 -50 -47 0
-106 -79 -73 -56 -50 -47 0
-107 -80 -73 -57 -50 -47 0
-108 -81 -73 -58 -50 -47 0
-109 -75 -74 -52 -51 -47 0
-110 -76 -74 -53 -51 -47 0
-111 -77 -74 -54 -51 -47 0
-112 -78 -74 -55 -51 -47 0
-113 -79 -74 -56 -51 -47 0
-114 -80 -74 -57 -51 -47 0
-115 -81 -74 -58 -51 -47 0
-116 -76 -75 -53 -52 -47 0
-117 -77 -75 -54 -52 -47 0
-118 -78 -75 -55 -52 -47 0
-119 -79 -75 -56 -52 -47 0
-120 -80 -75 -57 -52 -47 0
-121 -81 -75 -58 -52 -47 0
-122 -77 -76 -54 -53 -47 0
-123 -78 -76 -55 -53 -47 0
-124 -79 -76 -56 -53 -47 0
-125 -80 -76 -57 -53 -47 0
-126 -81 -76 -58 -53 -47 0
-127 -78 -77 -55 -54 -47 0
-128 -79 -77 -56 -54 -47 0
-129 -80 -77 -57 -54 -47 0
-130 -81 -77 -58 -54 -47 0
-131 -79 -78 -56 -55 -47 0
-132 -80 -78 -57 -55 -47 0
-133 -81 -78 -58 -55 -47 0
-134 -80 -79 -57 -56 -47 0
-135 -81 -79 -58 -56 -47 0
-136 -81 -80 -58 -57 -47 0
-92 -83 -82 -50 -49 -48 0
-93 -84 -82 -51 -49 -48 0
-94 -85 -82 -52 -49 -48 0
-95 -86 -82 -53 -49 -48 0
-96 -87 -82 -54 -49 -48 0
-97 -88 -82 -55 -49 -48 0
-98 -89 -82 -56 -49 -48 0
-99 -90 -82 -57 -49 -48 0
-100 -91 -82 -58 -49 -48 0
-101 -84 -83 -51 -50 -48 0
-102 -85 -83 -52 -50 -48 0
-103 -86 -83 -53 -50 -48 0
-104 -87 -83 -54 -50 -48 0
-105 -88 -83 -55 -50 -48 0
-106 -89 -83 -56 -50 -48 0
-107 -90 -83 -57 -50 -48 0
-108 -91 -83 -58 -50 -48 0
-109 -85 -84 -52 -51 -48 0
-110 -86 -84 -53 -51 -48 0
-111 -87 -84 -54 -51 -48 0
-112 -88 -84 -55 -51 -48 0
-113 -89 -84 -56 -51 -48 0
-114 -90 -84 -57 -51 -48 0
-115 -91 -84 -58 -51 -48 0
-116 -86 -85 -53 -52 -48 0
-117 -87 -85 -54 -52 -48 0
-118 -88 -85 -55 -52 -48 0
-119 -89 -85 -56 -52 -48 0
-120 -90 -85 -57 -52 -48 0
-121 -91 -85 -58 -52 -48 0
-122 -87 -86 -54 -53 -48 0
-123 -88 -86 -55 -53 -48 0
-124 -89 -86 -56 -53 -48 0
-125 -90 -86 -57 -53 -48 0
-126 -91 -86 -58 -53 -48 0
-127 -88 -87 -55 -54 -48 0
-128 -89 -87 -56 -54 -48 0
-129 -90 -87 -57 -54 -48 0
-130 -91 -87 -58 -54 -48 0
-131 -89 -88 -56 -55 -48 0
-132 -90 -88 -57 -55 -48 0
-133 -91 -88 -58 -55 -48 0
-134 -90 -89 -57 -56 -48 0
-135 -91 -89 -58 -56 -48 0
-136 -91 -90 -58 -57 -48 0
-101 -93 -92 -51 -50 -49 0
-102 -94 -92 -52 -50 -49 0
-103 -95 -92 -53 -50 -49 0
-104 -96 -92 -54 -50 -49 0
-105 -97 -92 -55 -50 -49 0
-106 -98 -92 -56 -50 -49 0
-107 -99 -92 -57 -50 -49 0
-108 -100 -92 -58 -50 -49 0
-109 -94 -93 -52 -51 -49 0
-110 -95 -93 -53 -51 -49 0
-111 -96 -93 -54 -51 -49 0
-112 -97 -93 -55 -51 -49 0
-113 -98 -93 -56 -51 -49 0
-114 -99 -93 -57 -51 -49 0
-115 -100 -93 -58 -51 -49 0
-116 -95 -94 -53 -52 -49 0
-117 -96 -94 -54 -52 -49 0
-118 -97 -94 -55 -52 -49 0
-119 -98 -94 -56 -52 -49 0
-120 -99 -94 -57 -52 -49 0
-121 -100 -94 -58 -52 -49 0
-122 -96 -95 -54 -53 -49 0
-123 -97 -95 -55 -53 -49 0
-124 -98 -95 -56 -53 -49 0
-125 -99 -95 -57 -53 -49 0
-126 -100 -95 -58 -53 -49 0
-127 -97 -96 -55 -54 -49 0
-128 -98 -96 -56 -54 -49 0
-129 -99 -96 -57 -54 -49 0
-130 -100 -96 -58 -54 -49 0
-131 -98 -97 -56 -55 -49 0
-132 -99 -97 -57 -55 -49 0
-133 -100 -97 -58 -55 -49 0
-134 -99 -98 -57 -56 -49 0
-135 -100 -98 -58 -56 -49 0
-136 -100 -99 -58 -57 -49 0
-109 -102 -101 -52 -51 -50 0
-110 -103 -101 -53 -51 -50 0
-111 -104 -101 -54 -51 -50 0
-112 -105 -101 -55 -51 -50 0
-113 -106 -101 -56 -51 -50 0
-114 -107 -101 -57 -51 -50 0
-115 -108 -101 -58 -51 -50 0
-116 -103 -102 -53 -52 -50 0
-117 -104 -102 -54 -52 -50 0
-118 -105 -102 -55 -52 -50 0
-119 -106 -102 -56 -52 -50 0
-120 -107 -102 -57 -52 -50 0
-121 -108 -102 -58 -52 -50 0
-122 -104 -103 -54 -53 -50 0
-123 -105 -103 -55 -53 -50 0
-124 -106 -103 -56 -53 -50 0
-125 -107 -103 -57 -53 -50 0
-126 -108 -103 -58 -53 -50 0
-127 -105 -104 -55 -54 -50 0
-128 -106 -104 -56 -54 -50 0
-129 -107 -104 -57 -54 -50 0
-130 -108 -104 -58 -54 -50 0
-131 -106 -105 -56 -55 -50 0
-132 -107 -105 -57 -55 -50 0
-133 -108 -105 -58 -55 -50 0
-134 -107 -106 -57 -56 -50 0
-135 -108 -106 -58 -56 -50 0
-136 -108 -107 -58 -57 -50 0
-116 -110 -109 -53 -52 -51 0
-117 -111 -109 -54 -52 -51 0
-118 -112 -109 -55 -52 -51 0
-119 -113 -109 -56 -52 -51 0
-120 -114 -109 -57 -52 -51 0
-121 -115 -109 -58 -52 -51 0
-122 -111 -110 -54 -53 -51 0
-123 -112 -110 -55 -53 -51 0
-124 -113 -110 -56 -53 -51 0
-125 -114 -110 -57 -53 -51 0
-126 -115 -110 -58 -53 -51 0
-127 -112 -111 -55 -54 -51 0
-128 -113 -111 -56 -54 -51 0
-129 -114 -111 -57 -54 -51 0
-130 -115 -111 -58 -54 -51 0
-131 -113 -112 -56 -55 -51 0
-132 -114 -112 -57 -55 -51 0
-133 -115 -112 -58 -55 -51 0
-134 -114 -113 -57 -56 -51 0
-135 -115 -113 -58 -56 -51 0
-136 -115 -114 -58 -57 -51 0
-122 -117 -116 -54 -53 -52 0
-123 -118 -116 -55 -53 -52 0
-124 -119 -116 -56 -53 -52 0
-125 -120 -116 -57 -53 -52 0
-126 -121 -116 -58 -53 -52 0
-127 -118 -117 -55 -54 -52 0
-128 -119 -117 -56 -54 -52 0
-129 -120 -117 -57 -54 -52 0
-130 -121 -117 -58 -54 -52 0
-131 -119 -118 -56 -55 -52 0
-132 -120 -118 -57 -55 -52 0
-133 -121 -118 -58 -55 -52 0
-134 -120 -119 -57 -56 -52 0
-135 -121 -119 -58 -56 -52 0
-136 -121 -120 -58 -57 -52 0
-127 -123 -122 -55 -54 -53 0
-128 -124 -122 -56 -54 -53 0
-129 -125 -122 -57 -54 -53 0
-130 -126 -122 -58 -54 -53 0
-131 -124 -123 -56 -55 -53 0
-132 -125 -123 -57 -55 -53 0
-133 -126 -123 -58 -55 -53 0
-134 -125 -124 -57 -56 -53 0
-135 -126 -124 -58 -56 -53 0
-136 -126 -125 -58 -57 -53 0
-131 -128 -127 -56 -55 -54 0
-132 -129 -127 -57 -55 -54 0
-133 -130 -127 -58 -55 -54 0
-134 -129 -128 -57 -56 -54 0
-135 -130 -128 -58 -56 -54 0
-136 -130 -129 -58 -57 -54 0
-134 -132 -131 -57 -56 -55 0
-135 -133 -131 -58 -56 -55 0
-136 -133 -132 -58 -57 -55 0
-136 -135 -134 -58 -57 -56 0
-82 -72 -71 -61 -60 -59 0
-83 -73 -71 -62 -60 -59 0
-84 -74 -71 -63 -60 -59 0
-85 -75 -71 -64 -60 -59 0
-86 -76 -71 -65 -60 -59 0
-87 -77 -71 -66 -60 -59 0
-88 -78 -71 -67 -60 -59 0
-89 -79 -71 -68 -60 -59 0
-90 -80 -71 -69 -60 -59 0
-91 -81 -71 -70 -60 -59 0
-92 -73 -72 -62 -61 -59 0
-93 -74 -72 -63 -61 -59 0
-94 -75 -72 -64 -61 -59 0
-95 -76 -72 -65 -61 -59 0
-96 -77 -72 -66 -61 -59 0
-97 -78 -72 -67 -61 -59 0
-98 -79 -72 -68 -61 -59 0
-99 -80 -72 -69 -61 -59 0
-100 -81 -72 -70 -61 -59 0
-101 -74 -73 -63 -62 -59 0
-102 -75 -73 -64 -62 -59 0
-103 -76 -73 -65 -62 -59 0
-104 -77 -73 -66 -62 -59 0
-105 -78 -73 -67 -62 -59 0
-106 -79 -73 -68 -62 -59 0
-107 -80 -73 -69 -62 -59 0
-108 -81 -73 -70 -62 -59 0
-109 -75 -74 -64 -63 -59 0
-110 -76 -74 -65 -63 -59 0
-111 -77 -74 -66 -63 -59 0
-112 -78 -74 -67 -63 -59 0
-113 -79 -74 -68 -63 -59 0
-114 -80 -74 -69 -63 -59 0
-115 -81 -74 -70 -63 -59 0
-116 -76 -75 -65 -64 -59 0
-117 -77 -75 -66 -64 -59 0
-118 -78 -75 -67 -64 -59 0
-119 -79 -75 -68 -64 -59 0
-120 -80 -75 -69 -64 -59 0
-121 -81 -75 -70 -64 -59 0
-122 -77 -76 -66 -65 -59 0
-123 -78 -76 -67 -65 -59 0
-124 -79 -76 -68 -65 -59 0
-125 -80 -76 -69 -65 -59 0
-126 -81 -76 -70 -65 -59 0
-127 -78 -77 -67 -66 -59 0
-128 -79 -77 -68 -66 -59 0
-129 -80 -77 -69 -66 -59 0
-130 -81 -77 -70 -66 -59 0
-131 -79 -78 -68 -67 -59 0
-132 -80 -78 -69 -67 -59 0
-133 -81 -78 -70 -67 -59 0
-134 -80 -79 -69 -68 -59 0
-135 -81 -79 -70 -68 -59 0
-136 -81 -80 -70 -69 -59 0
-92 -83 -82 -62 -61 -60 0
-93 -84 -82 -63 -61 -60 0
-94 -85 -82 -64 -61 -60 0
-95 -86 -82 -65 -61 -60 0
-96 -87 -82 -66 -61 -60 0
-97 -88 -82 -67 -61 -60 0
-98 -89 -82 -68 -61 -60 0
-99 -90 -82 -69 -61 -60 0
-100 -91 -82 -70 -61 -60 0
-101 -84 -83 -63 -62 -60 0
-102 -85 -83 -64 -62 -60 0
-103 -86 -83 -65 -62 -60 0
-104 -87 -83 -66 -62 -60 0
-105 -88 -83 -67 -62 -60 0
-106 -89 -83 -68 -62 -60 0
-107 -90 -83 -69 -62 -60 0
-108 -91 -83 -70 -62 -60 0
-109 -85 -84 -64 -63 -60 0
-110 -86 -84 -65 -63 -60 0
-111 -87 -84 -66 -63 -60 0
-112 -88 -84 -67 -63 -60 0
-113 -89 -84 -68 -63 -60 0
-114 -90 -84 -69 -63 -60 0
-115 -91 -84 -70 -63 -60 0
-116 -86 -85 -65 -64 -60 0
-117 -87 -85 -66 -64 -60 0
-118 -88 -85 -67 -64 -60 0
-119 -89 -85 -68 -64 -60 0
-120 -90 -85 -69 -64 -60 0
-121 -91 -85 -70 -64 -60 0
-122 -87 -86 -66 -65 -60 0
-123 -88 -86 -67 -65 -60 0
-124 -89 -86 -68 -65 -60 0
-125 -90 -86 -69 -65 -60 0
-126 -91 -86 -70 -65 -60 0
-127 -88 -87 -67 -66 -60 0
-128 -89 -87 -68 -66 -60 0
-129 -90 -87 -69 -66 -60 0
-130 -91 -87 -70 -66 -60 0
-131 -89 -88 -68 -67 -60 0
-132 -90 -88 -69 -67 -60 0
-133 -91 -88 -70 -67 -60 0
-134 -90 -89 -69 -68 -60 0
-135 -91 -89 -70 -68 -60 0
-136 -91 -90 -70 -69 -60 0
-101 -93 -92 -63 -62 -61 0
-102 -94 -92 -64 -62 -61 0
-103 -95 -92 -65 -62 -61 0
-104 -96 -92 -66 -62 -61 0
-105 -97 -92 -67 -62 -61 0
-106 -98 -92 -68 -62 -61 0
-107 -99 -92 -69 -62 -61 0
-108 -100 -92 -70 -62 -61 0
-109 -94 -93 -64 -63 -61 0
-110 -95 -93 -65 -63 -61 0
-111 -96 -93 -66 -63 -61 0
-112 -97 -93 -67 -63 -61 0
-113 -98 -93 -68 -63 -61 0
-114 -99 -93 -69 -63 -61 0
-115 -100 -93 -70 -63 -61 0
-116 -95 -94 -65 -64 -61 0
-117 -96 -94 -66 -64 -61 0
-118 -97 -94 -67 -64 -61 0
-119 -98 -94 -68 -64 -61 0
-120 -99 -94 -69 -64 -61 0
-121 -100 -94 -70 -64 -61 0
-122 -96 -95 -66 -65 -61 0
-123 -97 -95 -67 -65 -61 0
-124 -98 -95 -68 -65 -61 0
-125 -99 -95 -69 -65 -61 0
-126 -100 -95 -70 -65 -61 0
-127 -97 -96 -67 -66 -61 0
-128 -98 -96 -68 -66 -61 0
-129 -99 -96 -69 -66 -61 0
-130 -100 -96 -70 -66 -61 0
-131 -98 -97 -68 -67 -61 0
-132 -99 -97 -69 -67 -61 0
-133 -100 -97 -70 -67 -61 0
-134 -99 -98 -69 -68 -61 0
-135 -100 -98 -70 -68 -61 0
-136 -100 -99 -70 -69 -61 0
-109 -102 -101 -64 -63 -62 0
-110 -103 -101 -65 -63 -62 0
-111 -104 -101 -66 -63 -62 0
-112 -105 -101 -67 -63 -62 0
-113 -106 -101 -68 -63 -62 0
-114 -107 -101 -69 -63 -62 0
-115 -108 -101 -70 -63 -62 0
-116 -103 -102 -65 -64 -62 0
-117 -104 -102 -66 -64 -62 0
-118 -105 -102 -67 -64 -62 0
-119 -106 -102 -68 -64 -62 0
-120 -107 -102 -69 -64 -62 0
-121 -108 -102 -70 -64 -62 0
-122 -104 -103 -66 -65 -62 0
-123 -105 -103 -67 -65 -62 0
-124 -106 -103 -68 -65 -62 0
-125 -107 -103 -69 -65 -62 0
-126 -108 -103 -70 -65 -62 0
-127 -105 -104 -67 -66 -62 0
-128 -106 -104 -68 -66 -62 0
-129 -107 -104 -69 -66 -62 0
-130 -108 -104 -70 -66 -62 0
-131 -106 -105 -68 -67 -62 0
-132 -107 -105 -69 -67 -62 0
-133 -108 -105 -70 -67 -62 0
-134 -107 -106 -69 -68 -62 0
-135 -108 -106 -70 -68 -62 0
-136 -108 -107 -70 -69 -62 0
-116 -110 -109 -65 -64 -63 0
-117 -111 -109 -66 -64 -63 0
-118 -112 -109 -67 -64 -63 0
-119 -113 -109 -68 -64 -63 0
-120 -114 -109 -69 -64 -63 0
-121 -115 -109 -70 -64 -63 0
-122 -111 -110 -66 -65 -63 0
-123 -112 -110 -67 -65 -63 0
-124 -113 -110 -68 -65 -63 0
-125 -114 -110 -69 -65 -63 0
-126 -115 -110 -70 -65 -63 0
-127 -112 -111 -67 -66 -63 0
-128 -113 -111 -68 -66 -63 0
-129 -114 -111 -69 -66 -63 0
-130 -115 -111 -70 -66 -63 0
-131 -113 -112 -68 -67 -63 0
-132 -114 -112 -69 -67 -63 0
-133 -115 -112 -70 -67 -63 0
-134 -114 -113 -69 -68 -63 0
-135 -115 -113 -70 -68 -63 0
-136 -115 -114 -70 -69 -63 0
-122 -117 -116 -66 -65 -64 0
-123 -118 -116 -67 -65 -64 0
-124 -119 -116 -68 -65 -64 0
-125 -120 -116 -69 -65 -64 0
-126 -121 -116 -70 -65 -64 0
-127 -118 -117 -67 -66 -64 0
-128 -119 -117 -68 -66 -64 0
-129 -120 -117 -69 -66 -64 0
-130 -121 -117 -70 -66 -64 0
-131 -119 -118 -68 -67 -64 0
-132 -120 -118 -69 -67 -64 0
-133 -121 -118 -70 -67 -64 0
-134 -120 -119 -69 -68 -64 0
-135 -121 -119 -70 -68 -64 0
-136 -121 -120 -70 -69 -64 0
-127 -123 -122 -67 -66 -65 0
-128 -124 -122 -68 -66 -65 0
-129 -125 -122 -69 -66 -65 0
-130 -126 -122 -70 -66 -65 0
-131 -124 -123 -68 -67 -65 0
-132 -125 -123 -69 -67 -65 0
-133 -126 -123 -70 -67 -65 0
-134 -125 -124 -69 -68 -65 0
-135 -126 -124 -70 -68 -65 0
-136 -126 -125 -70 -69 -65 0
-131 -128 -127 -68 -67 -66 0
-132 -129 -127 -69 -67 -66 0
-133 -130 -127 -70 -67 -66 0
-134 -129 -128 -69 -68 -66 0
-135 -130 -128 -70 -68 -66 0
-136 -130 -129 -70 -69 -66 0
-134 -132 -131 -69 -68 -67 0
-135 -133 -131 -70 -68 -67 0
-136 -133 -132 -70 -69 -67 0
-136 -135 -134 -70 -69 -68 0
-92 -83 -82 -73 -72 -71 0
-93 -84 -82 -74 -72 -71 0
-94 -85 -82 -75 -72 -71 0
-95 -86 -82 -76 -72 -71 0
-96 -87 -82 -77 -72 -71 0
-97 -88 -82 -78 -72 -71 0
-98 -89 -82 -79 -72 -71 0
-99 -90 -82 -80 -72 -71 0
-100 -91 -82 -81 -72 -71 0
-101 -84 -83 -74 -73 -71 0
-102 -85 -83 -75 -73 -71 0
-103 -86 -83 -76 -73 -71 0
-104 -87 -83 -77 -73 -71 0
-105 -88 -83 -78 -73 -71 0
-106 -89 -83 -79 -73 -71 0
-107 -90 -83 -80 -73 -71 0
-108 -91 -83 -81 -73 -71 0
-109 -85 -84 -75 -74 -71 0
-110 -86 -84 -76 -74 -71 0
-111 -87 -84 -77 -74 -71 0
-112 -88 -84 -78 -74 -71 0
-113 -89 -84 -79 -74 -71 0
-114 -90 -84 -80 -74 -71 0
-115 -91 -84 -81 -74 -71 0
-116 -86 -85 -76 -75 -71 0
-117 -87 -85 -77 -75 -71 0
-118 -88 -85 -78 -75 -71 0
-119 -89 -85 -79 -75 -71 0
-120 -90 -85 -80 -75 -71 0
-121 -91 -85 -81 -75 -71 0
-122 -87 -86 -77 -76 -71 0
-123 -88 -86 -78 -76 -71 0
-124 -89 -86 -79 -76 -71 0
-125 -90 -86 -80 -76 -71 0
-126 -91 -86 -81 -76 -71 0
-127 -88 -87 -78 -77 -71 0
-128 -89 -87 -79 -77 -71 0
-129 -90 -87 -80 -77 -71 0
-130 -91 -87 -81 -77 -71 0
-131 -89 -88 -79 -78 -71 0
-132 -90 -88 -80 -78 -71 0
-133 -91 -88 -81 -78 -71 0
-134 -90 -89 -80 -79 -71 0
-135 -91 -89 -81 -79 -71 0
-136 -91 -90 -81 -80 -71 0
-101 -93 -92 -74 -73 -72 0
-102 -94 -92 -75 -73 -72 0
-103 -95 -92 -76 -73 -72 0
-104 -96 -92 -77 -73 -72 0
-105 -97 -92 -78 -73 -72 0
-106 -98 -92 -79 -73 -72 0
-107 -99 -92 -80 -73 -72 0
-108 -100 -92 -81 -73 -72 0
-109 -94 -93 -75 -74 -72 0
-110 -95 -93 -76 -74 -72 0
-111 -96 -93 -77 -74 -72 0
-112 -97 -93 -78 -74 -72 0
-113 -98 -93 -79 -74 -72 0
-114 -99 -93 -80 -74 -72 0
-115 -100 -93 -81 -74 -72 0
-116 -95 -94 -76 -75 -72 0
-117 -96 -94 -77 -75 -72 0
-118 -97 -94 -78 -75 -72 0
-119 -98 -94 -79 -75 -72 0
-120 -99 -94 -80 -75 -72 0
-121 -100 -94 -81 -75 -72 0
-122 -96 -95 -77 -76 -72 0
-123 -97 -95 -78 -76 -72 0
-124 -98 -95 -79 -76 -72 0
-125 -99 -95 -80 -76 -72 0
-126 -100 -95 -81 -76 -72 0
-127 -97 -96 -78 -77 -72 0
-128 -98 -96 -79 -77 -72 0
-129 -99 -96 -80 -77 -72 0
-130 -100 -96 -81 -77 -72 0
-131 -98 -97 -79 -78 -72 0
-132 -99 -97 -80 -78 -72 0
-133 -100 -97 -81 -78 -72 0
-134 -99 -98 -80 -79 -72 0
-135 -100 -98 -81 -79 -72 0
-136 -100 -99 -81 -80 -72 0
-109 -102 -101 -75 -74 -73 0
-110 -103 -101 -76 -74 -73 0
-111 -104 -101 -77 -74 -73 0
-112 -105 -101 -78 -74 -73 0
-113 -106 -101 -79 -74 -73 0
-114 -107 -101 -80 -74 -73 0
-115 -108 -101 -81 -74 -73 0
-116 -103 -102 -76 -75 -73 0
-117 -104 -102 -77 -75 -73 0
-118 -105 -102 -78 -75 -73 0
-119 -106 -102 -79 -75 -73 0
-120 -107 -102 -80 -75 -73 0
-121 -108 -102 -81 -75 -73 0
-122 -104 -103 -77 -76 -73 0
-123 -105 -103 -78 -76 -73 0
-124 -106 -103 -79 -76 -73 0
-125 -107 -103 -80 -76 -73 0
-126 -108 -103 -81 -76 -73 0
-127 -105 -104 -78 -77 -73 0
-128 -106 -104 -79 -77 -73 0
-129 -107 -104 -80 -77 -73 0
-130 -108 -104 -81 -77 -73 0
-131 -106 -105 -79 -78 -73 0
-132 -107 -105 -80 -78 -73 0
-133 -108 -105 -81 -78 -73 0
-134 -107 -106 -80 -79 -73 0
-135 -108 -106 -81 -79 -73 0
-136 -108 -107 -81 -80 -73 0
-116 -110 -109 -76 -75 -74 0
-117 -111 -109 -77 -75 -74 0
-118 -112 -109 -78 -75 -74 0
-119 -113 -109 -79 -75 -74 0
-120 -114 -109 -80 -75 -74 0
-121 -115 -109 -81 -75 -74 0
-122 -111 -110 -77 -76 -74 0
-123 -112 -110 -78 -76 -74 0
-124 -113 -110 -79 -76 -74 0
-125 -114 -110 -80 -76 -74 0
-126 -115 -110 -81 -76 -74 0
-127 -112 -111 -78 -77 -74 0
-128 -113 -111 -79 -77 -74 0
-129 -114 -111 -80 -77 -74 0
-130 -115 -111 -81 -77 -74 0
-131 -113 -112 -79 -78 -74 0
-132 -114 -112 -80 -78 -74 0
-133 -115 -112 -81 -78 -74 0
-134 -114 -113 -80 -79 -74 0
-135 -115 -113 -81 -79 -74 0
-136 -115 -114 -81 -80 -74 0
-122 -117 -116 -77 -76 -75 0
-123 -118 -116 -78 -76 -75 0
-124 -119 -116 -79 -76 -75 0
-125 -120 -116 -80 -76 -75 0
-126 -121 -116 -81 -76 -75 0
-127 -118 -117 -78 -77 -75 0
-128 -119 -117 -79 -77 -75 0
-129 -120 -117 -80 -77 -75 0
-130 -121 -117 -81 -77 -75 0
-131 -119 -118 -79 -78 -75 0
-132 -120 -118 -80 -78 -75 0
-133 -121 -118 -81 -78 -75 0
-134 -120 -119 -80 -79 -75 0
-135 -121 -119 -81 -79 -75 0
-136 -121 -120 -81 -80 -75 0
-127 -123 -122 -78 -77 -76 0
-128 -124 -122 -79 -77 -76 0
-129 -125 -122 -80 -77 -76 0
-130 -126 -122 -81 -77 -76 0
-131 -124 -123 -79 -78 -76 0
-132 -125 -123 -80 -78 -76 0
-133 -126 -123 -81 -78 -76 0
-134 -125 -124 -80 -79 -76 0
-135 -126 -124 -81 -79 -76 0
-136 -126 -125 -81 -80 -76 0
-131 -128 -127 -79 -78 -77 0
-132 -129 -127 -80 -78 -77 0
-133 -130 -127 -81 -78 -77 0
-134 -129 -128 -80 -79 -77 0
-135 -130 -128 -81 -79 -77 0
-136 -130 -129 -81 -80 -77 0
-134 -132 -131 -80 -79 -78 0
-135 -133 -131 -81 -79 -78 0
-136 -133 -132 -81 -80 -78 0
-136 -135 -134 -81 -80 -79 0
-101 -93 -92 -84 -83 -82 0
-102 -94 -92 -85 -83 -82 0
-103 -95 -92 -86 -83 -82 0
-104 -96 -92 -87 -83 -82 0
-105 -97 -92 -88 -83 -82 0
-106 -98 -92 -89 -83 -82 0
-107 -99 -92 -90 -83 -82 0
-108 -100 -92 -91 -83 -82 0
-109 -94 -93 -85 -84 -82 0
-110 -95 -93 -86 -84 -82 0
-111 -96 -93 -87 -84 -82 0
-112 -97 -93 -88 -84 -82 0
-113 -98 -93 -89 -84 -82 0
-114 -99 -93 -90 -84 -82 0
-115 -100 -93 -91 -84 -82 0
-116 -95 -94 -86 -85 -82 0
-117 -96 -94 -87 -85 -82 0
-118 -97 -94 -88 -85 -82 0
-119 -98 -94 -89 -85 -82 0
-120 -99 -94 -90 -85 -82 0
-121 -100 -94 -91 -85 -82 0
-122 -96 -95 -87 -86 -82 0
-123 -97 -95 -88 -86 -82 0
-124 -98 -95 -89 -86 -82 0
-125 -99 -95 -90 -86 -82 0
-126 -100 -95 -91 -86 -82 0
-127 -97 -96 -88 -87 -82 0
-128 -98 -96 -89 -87 -82 0
-129 -99 -96 -90 -87 -82 0
-130 -100 -96 -91 -87 -82 0
-131 -98 -97 -89 -88 -82 0
-132 -99 -97 -90 -88 -82 0
-133 -100 -97 -91 -88 -82 0
-134 -99 -98 -90 -89 -82 0
-135 -100 -98 -91 -89 -82 0
-136 -100 -99 -91 -90 -82 0
-109 -102 -101 -85 -84 -83 0
-110 -103 -101 -86 -84 -83 0
-111 -104 -101 -87 -84 -83 0
-112 -105 -101 -88 -84 -83 0
-113 -106 -101 -89 -84 -83 0
-114 -107 -101 -90 -84 -83 0
-115 -108 -101 -91 -84 -83 0
-116 -103 -102 -86 -85 -83 0
-117 -104 -102 -87 -85 -83 0
-118 -105 -102 -88 -85 -83 0
-119 -106 -102 -89 -85 -83 0
-120 -107 -102 -90 -85 -83 0
-121 -108 -102 -91 -85 -83 0
-122 -104 -103 -87 -86 -83 0
-123 -105 -103 -88 -86 -83 0
-124 -106 -103 -89 -86 -83 0
-125 -107 -103 -90 -86 -83 0
-126 -108 -103 -91 -86 -83 0
-127 -105 -104 -88 -87 -83 0
-128 -106 -104 -89 -87 -83 0
-129 -107 -104 -90 -87 -83 0
-130 -108 -104 -91 -87 -83 0
-131 -106 -105 -89 -88 -83 0
-132 -107 -105 -90 -88 -83 0
-133 -108 -105 -91 -88 -83 0
-134 -107 -106 -90 -89 -83 0
-135 -108 -106 -91 -89 -83 0
-136 -108 -107 -91 -90 -83 0
-116 -110 -109 -86 -85 -84 0
-117 -111 -109 -87 -85 -84 0
-118 -112 -109 -88 -85 -84 0
-119 -113 -109 -89 -85 -84 0
-120 -114 -109 -90 -85 -84 0
-121 -115 -109 -91 -85 -84 0
-122 -111 -110 -87 -86 -84 0
-123 -112 -110 -88 -86 -84 0
-124 -113 -110 -89 -86 -84 0
-125 -114 -110 -90 -86 -84 0
-126 -115 -110 -91 -86 -84 0
-127 -112 -111 -88 -87 -84 0
-128 -113 -111 -89 -87 -84 0
-129 -114 -111 -90 -87 -84 0
-130 -115 -111 -91 -87 -84 0
-131 -113 -112 -89 -88 -84 0
-132 -114 -112 -90 -88 -84 0
-133 -115 -112 -91 -88 -84 0
-134 -114 -113 -90 -89 -84 0
-135 -115 -113 -91 -89 -84 0
-136 -115 -114 -91 -90 -84 0
-122 -117 -116 -87 -86 -85 0
-123 -118 -116 -88 -86 -85 0
-124 -119 -116 -89 -86 -85 0
-125 -120 -116 -90 -86 -85 0
-126 -121 -116 -91 -86 -85 0
-127 -118 -117 -88 -87 -85 0
-128 -119 -117 -89 -87 -85 0
-129 -120 -117 -90 -87 -85 0
-130 -121 -117 -91 -87 -85 0
-131 -119 -118 -89 -88 -85 0
-132 -120 -118 -90 -88 -85 0
-133 -121 -118 -91 -88 -85 0
-134 -120 -119 -90 -89 -85 0
-135 -121 -119 -91 -89 -85 0
-136 -121 -120 -91 -90 -85 0
-127 -123 -122 -88 -87 -86 0
-128 -124 -122 -89 -87 -86 0
-129 -125 -122 -90 -87 -86 0
-130 -126 -122 -91 -87 -86 0
-131 -124 -123 -89 -88 -86 0
-132 -125 -123 -90 -88 -86 0
-133 -126 -123 -91 -88 -86 0
-134 -125 -124 -90 -89 -86 0
-135 -126 -124 -91 -89 -86 0
-136 -126 -125 -91 -90 -86 0
-131 -128 -127 -89 -88 -87 0
-132 -129 -127 -90 -88 -87 0
-133 -130 -127 -91 -88 -87 0
-134 -129 -128 -90 -89 -87 0
-135 -130 -128 -91 -89 -87 0
-136 -130 -129 -91 -90 -87 0
-134 -132 -131 -90 -89 -88 0
-135 -133 -131 -91 -89 -88 0
-136 -133 -132 -91 -90 -88 0
-136 -135 -134 -91 -90 -89 0
-109 -102 -101 -94 -93 -92 0
-110 -103 -101 -95 -93 -92 0
-111 -104 -101 -96 -93 -92 0
-112 -105 -101 -97 -93 -92 0
-113 -106 -101 -98 -93 -92 0
-114 -107 -101 -99 -93 -92 0
-115 -108 -101 -100 -93 -92 0
-116 -103 -102 -95 -94 -92 0
-117 -104 -102 -96 -94 -92 0
-118 -105 -102 -97 -94 -92 0
-119 -106 -102 -98 -94 -92 0
-120 -107 -102 -99 -94 -92 0
-121 -108 -102 -100 -94 -92 0
-122 -104 -103 -96 -95 -92 0
-123 -105 -103 -97 -95 -92 0
-124 -106 -103 -98 -95 -92 0
-125 -107 -103 -99 -95 -92 0
-126 -108 -103 -100 -95 -92 0
-127 -105 -104 -97 -96 -92 0
-128 -106 -104 -98 -96 -92 0
-129 -107 -104 -99 -96 -92 0
-130 -108 -104 -100 -96 -92 0
-131 -106 -105 -98 -97 -92 0
-132 -107 -105 -99 -97 -92 0
-133 -108 -105 -100 -97 -92 0
-134 -107 -106 -99 -98 -92 0
-135 -108 -106 -100 -98 -92 0
-136 -108 -107 -100 -99 -92 0
-116 -110 -109 -95 -94 -93 0
-117 -111 -109 -96 -94 -93 0
-118 -112 -109 -97 -94 -93 0
-119 -113 -109 -98 -94 -93 0
-120 -114 -109 -99 -94 -93 0
-121 -115 -109 -100 -94 -93 0
-122 -111 -110 -96 -95 -93 0
-123 -112 -110 -97 -95 -93 0
-124 -113 -110 -98 -95 -93 0
-125 -114 -110 -99 -95 -93 0
-126 -115 -110 -100 -95 -93 0
-127 -112 -111 -97 -96 -93 0
-128 -113 -111 -98 -96 -93 0
-129 -114 -111 -99 -96 -93 0
-130 -115 -111 -100 -96 -93 0
-131 -113 -112 -98 -97 -93 0
-132 -114 -112 -99 -97 -93 0
-133 -115 -112 -100 -97 -93 0
-134 -114 -113 -99 -98 -93 0
-135 -115 -113 -100 -98 -93 0
-136 -115 -114 -100 -99 -93 0
-122 -117 -116 -96 -95 -94 0
-123 -118 -116 -97 -95 -94 0
-124 -119 -116 -98 -95 -94 0
-125 -120 -116 -99 -95 -94 0
-126 -121 -116 -100 -95 -94 0
-127 -118 -117 -97 -96 -94 0
-128 -119 -117 -98 -96 -94 0
-129 -120 -117 -99 -96 -94 0
-130 -121 -117 -100 -96 -94 0
-131 -119 -118 -98 -97 -94 0
-132 -120 -118 -99 -97 -94 0
-133 -121 -118 -100 -97 -94 0
-134 -120 -119 -99 -98 -94 0
-135 -121 -119 -100 -98 -94 0
-136 -121 -120 -100 -99 -94 0
-127 -123 -122 -97 -96 -95 0
-128 -124 -122 -98 -96 -95 0
-129 -125 -122 -99 -96 -95 0
-130 -126 -122 -100 -96 -95 0
-131 -124 -123 -98 -97 -95 0
-132 -125 -123 -99 -97 -95 0
-133 -126 -123 -100 -97 -95 0
-134 -125 -124 -99 -98 -95 0
-135 -126 -124 -100 -98 -95 0
-136 -126 -125 -100 -99 -95 0
-131 -128 -127 -98 -97 -96 0
-132 -129 -127 -99 -97 -96 0
-133 -130 -127 -100 -97 -96 0
-134 -129 -128 -99 -98 -96 0
-135 -130 -128 -100 -98 -96 0
-136 -130 -129 -100 -99 -96 0
-134 -132 -131 -99 -98 -97 0
-135 -133 -131 -100 -98 -97 0
-136 -133 -132 -100 -99 -97 0
-136 -135 -134 -100 -99 -98 0
-116 -110 -109 -103 -102 -101 0
-117 -111 -109 -104 -102 -101 0
-118 -112 -109 -105 -102 -101 0
-119 -113 -109 -106 -102 -101 0
-120 -114 -109 -107 -102 -101 0
-121 -115 -109 -108 -102 -101 0
-122 -111 -110 -104 -103 -101 0
-123 -112 -110 -105 -103 -101 0
-124 -113 -110 -106 -103 -101 0
-125 -114 -110 -107 -103 -101 0
-126 -115 -110 -108 -103 -101 0
-127 -112 -111 -105 -104 -101 0
-128 -113 -111 -106 -104 -101 0
-129 -114 -111 -107 -104 -101 0
-130 -115 -111 -108 -104 -101 0
-131 -113 -112 -106 -105 -101 0
-132 -114 -112 -107 -105 -101 0
-133 -115 -112 -108 -105 -101 0
-134 -114 -113 -107 -106 -101 0
-135 -115 -113 -108 -106 -101 0
-136 -115 -114 -108 -107 -101 0
-122 -117 -116 -104 -103 -102 0
-123 -118 -116 -105 -103 -102 0
-124 -119 -116 -106 -103 -102 0
-125 -120 -116 -107 -103 -102 0
-126 -121 -116 -108 -103 -102 0
-127 -118 -117 -105 -104 -102 0
-128 -119 -117 -106 -104 -102 0
-129 -120 -117 -107 -104 -102 0
-130 -121 -117 -108 -104 -102 0
-131 -119 -118 -106 -105 -102 0
-132 -120 -118 -107 -105 -102 0
-133 -121 -118 -108 -105 -102 0
-134 -120 -119 -107 -106 -102 0
-135 -121 -119 -108 -106 -102 0
-136 -121 -120 -108 -107 -102 0
-127 -123 -122 -105 -104 -103 0
-128 -124 -122 -106 -104 -103 0
-129 -125 -122 -107 -104 -103 0
-130 -126 -122 -108 -104 -103 0
-131 -124 -123 -106 -105 -103 0
-132 -125 -123 -107 -105 -103 0
-133 -126 -123 -108 -105 -103 0
-134 -125 -124 -107 -106 -103 0
-135 -126 -124 -108 -106 -103 0
-136 -126 -125 -108 -107 -103 0
-131 -128 -127 -106 -105 -104 0
-132 -129 -127 -107 -105 -104 0
-133 -130 -127 -108 -105 -104 0
-134 -129 -128 -107 -106 -104 0
-135 -130 -128 -108 -106 -104 0
-136 -130 -129 -108 -107 -104 0
-134 -132 -131 -107 -106 -105 0
-135 -133 -131 -108 -106 -105 0
-136 -133 -132 -108 -107 -105 0
-136 -135 -134 -108 -107 -106 0
-122 -117 -116 -111 -110 -109 0
-123 -118 -116 -112 -110 -109 0
-124 -119 -116 -113 -110 -109 0
-125 -120 -116 -114 -110 -109 0
-126 -121 -116 -115 -110 -109 0
-127 -118 -117 -112 -111 -109 0
-128 -119 -117 -113 -111 -109 0
-129 -120 -117 -114 -111 -109 0
-130 -121 -117 -115 -111 -109 0
-131 -119 -118 -113 -112 -109 0
-132 -120 -118 -114 -112 -109 0
-133 -121 -118 -115 -112 -109 0
-134 -120 -119 -114 -113 -109 0
-135 -121 -119 -115 -113 -109 0
-136 -121 -120 -115 -114 -109 0
-127 -123 -122 -112 -111 -110 0
-128 -124 -122 -113 -111 -110 0
-129 -125 -122 -114 -111 -110 0
-130 -126 -122 -115 -111 -110 0
-131 -124 -123 -113 -112 -110 0
-132 -125 -123 -114 -112 -110 0
-133 -126 -123 -115 -112 -110 0
-134 -125 -124 -114 -113 -110 0
-135 -126 -124 -115 -113 -110 0
-136 -126 -125 -115 -114 -110 0
-131 -128 -127 -113 -112 -111 0
-132 -129 -127 -114 -112 -111 0
-133 -130 -127 -115 -112 -111 0
-134 -129 -128 -114 -113 -111 0
-135 -130 -128 -115 -113 -111 0
-136 -130 -129 -115 -114 -111 0
-134 -132 -131 -114 -113 -112 0
-135 -133 -131 -115 -113 -112 0
-136 -133 -132 -115 -114 -112 0
-136 -135 -134 -115 -114 -113 0
-127 -123 -122 -118 -117 -116 0
-128 -124 -122 -119 -117 -116 0
-129 -125 -122 -120 -117 -116 0
-130 -126 -122 -121 -117 -116 0
-131 -124 -123 -119 -118 -116 0
-132 -125 -123 -120 -118 -116 0
-133 -126 -123 -121 -118 -116 0
-134 -125 -124 -120 -119 -116 0
-135 -126 -124 -121 -119 -116 0
-136 -126 -125 -121 -120 -116 0
-131 -128 -127 -119 -118 -117 0
-132 -129 -127 -120 -118 -117 0
-133 -130 -127 -121 -118 -117 0
-134 -129 -128 -120 -119 -117 0
-135 -130 -128 -121 -119 -117 0
-136 -130 -129 -121 -120 -117 0
-134 -132 -131 -120 -119 -118 0
-135 -133 -131 -121 -119 -118 0
-136 -133 -132 -121 -120 -118 0
-136 -135 -134 -121 -120 -119 0
-131 -128 -127 -124 -123 -122 0
-132 -129 -127 -125 -123 -122 0
-133 -130 -127 -126 -123 -122 0
-134 -129 -128 -125 -124 -122 0
-135 -130 -128 -126 -124 -122 0
-136 -130 -129 -126 -125 -122 0
-134 -132 -131 -125 -124 -123 0
-135 -133 -131 -126 -124 -123 0
-136 -133 -132 -126 -125 -123 0
-136 -135 -134 -126 -125 -124 0
-134 -132 -131 -129 -128 -127 0
-135 -133 -131 -130 -128 -127 0
-136 -133 -132 -130 -129 -127 0
-136 -135 -134 -130 -129 -128 0
-136 -135 -134 -133 -132 -131 0
-137 -138 -139 -140 -141 -142 0
-143 -144 -139 -145 -141 -142 0
-146 -147 -139 -148 -141 -142 0
-149 -150 -139 -151 -141 -142 0
-152 -153 -139 -154 -141 -142 0
-155 -156 -139 -157 -141 -142 0
-158 -159 -139 -160 -141 -142 0
-161 -162 -139 -163 -141 -142 0
-164 -165 -139 -166 -141 -142 0
-167 -168 -139 -169 -141 -142 0
-170 -171 -139 -172 -141 -142 0
-173 -174 -139 -175 -141 -142 0
-176 -177 -139 -178 -141 -142 0
-179 -180 -139 -181 -141 -142 0
-182 -144 -138 -145 -140 -142 0
-183 -147 -138 -148 -140 -142 0
-184 -150 -138 -151 -140 -142 0
-185 -153 -138 -154 -140 -142 0
-186 -156 -138 -157 -140 -142 0
-187 -159 -138 -160 -140 -142 0
-188 -162 -138 -163 -140 -142 0
-189 -165 -138 -166 -140 -142 0
-190 -168 -138 -169 -140 -142 0
-191 -171 -138 -172 -140 -142 0
-192 -174 -138 -175 -140 -142 0
-193 -177 -138 -178 -140 -142 0
-194 -180 -138 -181 -140 -142 0
-195 -147 -144 -148 -145 -142 0
-196 -150 -144 -151 -145 -142 0
-197 -153 -144 -154 -145 -142 0
-198 -156 -144 -157 -145 -142 0
-199 -159 -144 -160 -145 -142 0
-200 -162 -144 -163 -145 -142 0
-201 -165 -144 -166 -145 -142 0
-202 -168 -144 -169 -145 -142 0
-203 -171 -144 -172 -145 -142 0
-204 -174 -144 -175 -145 -142 0
-205 -177 -144 -178 -145 -142 0
-206 -180 -144 -181 -145 -142 0
-207 -150 -147 -151 -148 -142 0
-208 -153 -147 -154 -148 -142 0
-209 -156 -147 -157 -148 -142 0
-210 -159 -147 -160 -148 -142 0
-211 -162 -147 -163 -148 -142 0
-212 -165 -147 -166 -148 -142 0
-213 -168 -147 -169 -148 -142 0
-214 -171 -147 -172 -148 -142 0
-215 -174 -147 -175 -148 -142 0
-216 -177 -147 -178 -148 -142 0
-217 -180 -147 -181 -148 -142 0
-218 -153 -150 -154 -151 -142 0
-219 -156 -150 -157 -151 -142 0
-220 -159 -150 -160 -151 -142 0
-221 -162 -150 -163 -151 -142 0
-222 -165 -150 -166 -151 -142 0
-223 -168 -150 -169 -151 -142 0
-224 -171 -150 -172 -151 -142 0
-225 -174 -150 -175 -151 -142 0
-226 -177 -150 -178 -151 -142 0
-227 -180 -150 -181 -151 -142 0
-228 -156 -153 -157 -154 -142 0
-229 -159 -153 -160 -154 -142 0
-230 -162 -153 -163 -154 -142 0
-231 -165 -153 -166 -154 -142 0
-232 -168 -153 -169 -154 -142 0
-233 -171 -153 -172 -154 -142 0
-234 -174 -153 -175 -154 -142 0
-235 -177 -153 -178 -154 -142 0
-236 -180 -153 -181 -154 -142 0
-237 -159 -156 -160 -157 -142 0
-238 -162 -156 -163 -157 -142 0
-239 -165 -156 -166 -157 -142 0
-240 -168 -156 -169 -157 -142 0
-241 -171 -156 -172 -157 -142 0
-242 -174 -156 -175 -157 -142 0
-243 -177 -156 -178 -157 -142 0
-244 -180 -156 -181 -157 -142 0
-245 -162 -159 -163 -160 -142 0
-246 -165 -159 -166 -160 -142 0
-247 -168 -159 -169 -160 -142 0
-248 -171 -159 -172 -160 -142 0
-249 -174 -159 -175 -160 -142 0
-250 -177 -159 -178 -160 -142 0
-251 -180 -159 -181 -160 -142 0
-252 -165 -162 -166 -163 -142 0
-253 -168 -162 -169 -163 -142 0
-254 -171 -162 -172 -163 -142 0
-255 -174 -162 -175 -163 -142 0
-256 -177 -162 -178 -163 -142 0
-257 -180 -162 -181 -163 -142 0
-258 -168 -165 -169 -166 -142 0
-259 -171 -165 -172 -166 -142 0
-260 -174 -165 -175 -166 -142 0
-261 -177 -165 -178 -166 -142 0
-262 -180 -165 -181 -166 -142 0
-263 -171 -168 -172 -169 -142 0
-264 -174 -168 -175 -169 -142 0
-265 -177 -168 -178 -169 -142 0
-266 -180 -168 -181 -169 -142 0
-267 -174 -171 -175 -172 -142 0
-268 -177 -171 -178 -172 -142 0
-269 -180 -171 -181 -172 -142 0
-270 -177 -174 -178 -175 -142 0
-271 -180 -174 -181 -175 -142 0
-272 -180 -177 -181 -178 -142 0
-182 -143 -137 -145 -140 -141 0
-183 -146 -137 -148 -140 -141 0
-184 -149 -137 -151 -140 -141 0
-185 -152 -137 -154 -140 -141 0
-186 -155 -137 -157 -140 -141 0
-187 -158 -137 -160 -140 -141 0
-188 -161 -137 -163 -140 -141 0
-189 -164 -137 -166 -140 -141 0
-190 -167 -137 -169 -140 -141 0
-191 -170 -137 -172 -140 -141 0
-192 -173 -137 -175 -140 -141 0
-193 -176 -137 -178 -140 -141 0
-194 -179 -137 -181 -140 -141 0
-195 -146 -143 -148 -145 -141 0
-196 -149 -143 -151 -145 -141 0
-197 -152 -143 -154 -145 -141 0
-198 -155 -143 -157 -145 -141 0
-199 -158 -143 -160 -145 -141 0
-200 -161 -143 -163 -145 -141 0
-201 -164 -143 -166 -145 -141 0
-202 -167 -143 -169 -145 -141 0
-203 -170 -143 -172 -145 -141 0
-204 -173 -143 -175 -145 -141 0
-205 -176 -143 -178 -145 -141 0
-206 -179 -143 -181 -145 -141 0
-207 -149 -146 -151 -148 -141 0
-208 -152 -146 -154 -148 -141 0
-209 -155 -146 -157 -148 -141 0
-210 -158 -146 -160 -148 -141 0
-211 -161 -146 -163 -148 -141 0
-212 -164 -146 -166 -148 -141 0
-213 -167 -146 -169 -148 -141 0
-214 -170 -146 -172 -148 -141 0
-215 -173 -146 -175 -148 -141 0
-216 -176 -146 -178 -148 -141 0
-217 -179 -146 -181 -148 -141 0
-218 -152 -149 -154 -151 -141 0
-219 -155 -149 -157 -151 -141 0
-220 -158 -149 -160 -151 -141 0
-221 -161 -149 -163 -151 -141 0
-222 -164 -149 -166 -151 -141 0
-223 -167 -149 -169 -151 -141 0
-224 -170 -149 -172 -151 -141 0
-225 -173 -149 -175 -151 -141 0
-226 -176 -149 -178 -151 -141 0
-227 -179 -149 -181 -151 -141 0
-228 -155 -152 -157 -154 -141 0
-229 -158 -152 -160 -154 -141 0
-230 -161 -152 -163 -154 -141 0
-231 -164 -152 -166 -154 -141 0
-232 -167 -152 -169 -154 -141 0
-233 -170 -152 -172 -154 -141 0
-234 -173 -152 -175 -154 -141 0
-235 -176 -152 -178 -154 -141 0
-236 -179 -152 -181 -154 -141 0
-237 -158 -155 -160 -157 -141 0
-238 -161 -155 -163 -157 -141 0
-239 -164 -155 -166 -157 -141 0
-240 -167 -155 -169 -157 -141 0
-241 -170 -155 -172 -157 -141 0
-242 -173 -155 -175 -157 -141 0
-243 -176 -155 -178 -157 -141 0
-244 -179 -155 -181 -157 -141 0
-245 -161 -158 -163 -160 -141 0
-246 -164 -158 -166 -160 -141 0
-247 -167 -158 -169 -160 -141 0
-248 -170 -158 -172 -160 -141 0
-249 -173 -158 -175 -160 -141 0
-250 -176 -158 -178 -160 -141 0
-251 -179 -158 -181 -160 -141 0
-252 -164 -161 -166 -163 -141 0
-253 -167 -161 -169 -163 -141 0
-254 -170 -161 -172 -163 -141 0
-255 -173 -161 -175 -163 -141 0
-256 -176 -161 -178 -163 -141 0
-257 -179 -161 -181 -163 -141 0
-258 -167 -164 -169 -166 -141 0
-259 -170 -164 -172 -166 -141 0
-260 -173 -164 -175 -166 -141 0
-261 -176 -164 -178 -166 -141 0
-262 -179 -164 -181 -166 -141 0
-263 -170 -167 -172 -169 -141 0
-264 -173 -167 -175 -169 -141 0
-265 -176 -167 -178 -169 -141 0
-266 -179 -167 -181 -169 -141 0
-267 -173 -170 -175 -172 -141 0
-268 -176 -170 -178 -172 -141 0
-269 -179 -170 -181 -172 -141 0
-270 -176 -173 -178 -175 -141 0
-271 -179 -173 -181 -175 -141 0
-272 -179 -176 -181 -178 -141 0
-195 -183 -182 -148 -145 -140 0
-196 -184 -182 -151 -145 -140 0
-197 -185 -182 -154 -145 -140 0
-198 -186 -182 -157 -145 -140 0
-199 -187 -182 -160 -145 -140 0
-200 -188 -182 -163 -145 -140 0
-201 -189 -182 -166 -145 -140 0
-202 -190 -182 -169 -145 -140 0
-203 -191 -182 -172 -145 -140 0
-204 -192 -182 -175 -145 -140 0
-205 -193 -182 -178 -145 -140 0
-206 -194 -182 -181 -145 -140 0
-207 -184 -183 -151 -148 -140 0
-208 -185 -183 -154 -148 -140 0
-209 -186 -183 -157 -148 -140 0
-210 -187 -183 -160 -148 -140 0
-211 -188 -183 -163 -148 -140 0
-212 -189 -183 -166 -148 -140 0
-213 -190 -183 -169 -148 -140 0
-214 -191 -183 -172 -148 -140 0
-215 -192 -183 -175 -148 -140 0
-216 -193 -183 -178 -148 -140 0
-217 -194 -183 -181 -148 -140 0
-218 -185 -184 -154 -151 -140 0
-219 -186 -184 -157 -151 -140 0
-220 -187 -184 -160 -151 -140 0
-221 -188 -184 -163 -151 -140 0
-222 -189 -184 -166 -151 -140 0
-223 -190 -184 -169 -151 -140 0
-224 -191 -184 -172 -151 -140 0
-225 -192 -184 -175 -151 -140 0
-226 -193 -184 -178 -151 -140 0
-227 -194 -184 -181 -151 -140 0
-228 -186 -185 -157 -154 -140 0
-229 -187 -185 -160 -154 -140 0
-230 -188 -185 -163 -154 -140 0
-231 -189 -185 -166 -154 -140 0
-232 -190 -185 -169 -154 -140 0
-233 -191 -185 -172 -154 -140 0
-234 -192 -185 -175 -154 -140 0
-235 -193 -185 -178 -154 -140 0
-236 -194 -185 -181 -154 -140 0
-237 -187 -186 -160 -157 -140 0
-238 -188 -186 -163 -157 -140 0
-239 -189 -186 -166 -157 -140 0
-240 -190 -186 -169 -157 -140 0
-241 -191 -186 -172 -157 -140 0
-242 -192 -186 -175 -157 -140 0
-243 -193 -186 -178 -157 -140 0
-244 -194 -186 -181 -157 -140 0
-245 -188 -187 -163 -160 -140 0
-246 -189 -187 -166 -160 -140 0
-247 -190 -187 -169 -160 -140 0
-248 -191 -187 -172 -160 -140 0
-249 -192 -187 -175 -160 -140 0
-250 -193 -187 -178 -160 -140 0
-251 -194 -187 -181 -160 -140 0
-252 -189 -188 -166 -163 -140 0
-253 -190 -188 -169 -163 -140 0
-254 -191 -188 -172 -163 -140 0
-255 -192 -188 -175 -163 -140 0
-256 -193 -188 -178 -163 -140 0
-257 -194 -188 -181 -163 -140 0
-258 -190 -189 -169 -166 -140 0
-259 -191 -189 -172 -166 -140 0
-260 -192 -189 -175 -166 -140 0
-261 -193 -189 -178 -166 -140 0
-262 -194 -189 -181 -166 -140 0
-263 -191 -190 -172 -169 -140 0
-264 -192 -190 -175 -169 -140 0
-265 -193 -190 -178 -169 -140 0
-266 -194 -190 -181 -169 -140 0
-267 -192 -191 -175 -172 -140 0
-268 -193 -191 -178 -172 -140 0
-269 -194 -191 -181 -172 -140 0
-270 -193 -192 -178 -175 -140 0
-271 -194 -192 -181 -175 -140 0
-272 -194 -193 -181 -178 -140 0
-207 -196 -195 -151 -148 -145 0
-208 -197 -195 -154 -148 -145 0
-209 -198 -195 -157 -148 -145 0
-210 -199 -195 -160 -148 -145 0
-211 -200 -195 -163 -148 -145 0
-212 -201 -195 -166 -148 -145 0
-213 -202 -195 -169 -148 -145 0
-214 -203 -195 -172 -148 -145 0
-215 -204 -195 -175 -148 -145 0
-216 -205 -195 -178 -148 -145 0
-217 -206 -195 -181 -148 -145 0
-218 -197 -196 -154 -151 -145 0
-219 -198 -196 -157 -151 -145 0
-220 -199 -196 -160 -151 -145 0
-221 -200 -196 -163 -151 -145 0
-222 -201 -196 -166 -151 -145 0
-223 -202 -196 -169 -151 -145 0
-224 -203 -196 -172 -151 -145 0
-225 -204 -196 -175 -151 -145 0
-226 -205 -196 -178 -151 -145 0
-227 -206 -196 -181 -151 -145 0
-228 -198 -197 -157 -154 -145 0
-229 -199 -197 -160 -154 -145 0
-230 -200 -197 -163 -154 -145 0
-231 -201 -197 -166 -154 -145 0
-232 -202 -197 -169 -154 -145 0
-233 -203 -197 -172 -154 -145 0
-234 -204 -197 -175 -154 -145 0
-235 -205 -197 -178 -154 -145 0
-236 -206 -197 -181 -154 -145 0
-237 -199 -198 -160 -157 -145 0
-238 -200 -198 -163 -157 -145 0
-239 -201 -198 -166 -157 -145 0
-240 -202 -198 -169 -157 -145 0
-241 -203 -198 -172 -157 -145 0
-242 -204 -198 -175 -157 -145 0
-243 -205 -198 -178 -157 -145 0
-244 -206 -198 -181 -157 -145 0
-245 -200 -199 -163 -160 -145 0
-246 -201 -199 -166 -160 -145 0
-247 -202 -199 -169 -160 -145 0
-248 -203 -199 -172 -160 -145 0
-249 -204 -199 -175 -160 -145 0
-250 -205 -199 -178 -160 -145 0
-251 -206 -199 -181 -160 -145 0
-252 -201 -200 -166 -163 -145 0
-253 -202 -200 -169 -163 -145 0
-254 -203 -200 -172 -163 -145 0
-255 -204 -200 -175 -163 -145 0
-256 -205 -200 -178 -163 -145 0
-257 -206 -200 -181 -163 -145 0
-258 -202 -201 -169 -166 -145 0
-259 -203 -201 -172 -166 -145 0
-260 -204 -201 -175 -166 -145 0
-261 -205 -201 -178 -166 -145 0
-262 -206 -201 -181 -166 -145 0
-263 -203 -202 -172 -169 -145 0
-264 -204 -202 -175 -169 -145 0
-265 -205 -202 -178 -169 -145 0
-266 -206 -202 -181 -169 -145 0
-267 -204 -203 -175 -172 -145 0
-268 -205 -203 -178 -172 -145 0
-269 -206 -203 -181 -172 -145 0
-270 -205 -204 -178 -175 -145 0
-271 -206 -204 -181 -175 -145 0
-272 -206 -205 -181 -178 -145 0
-218 -208 -207 -154 -151 -148 0
-219 -209 -207 -157 -151 -148 0
-220 -210 -207 -160 -151 -148 0
-221 -211 -207 -163 -151 -148 0
-222 -212 -207 -166 -151 -148 0
-223 -213 -207 -169 -151 -148 0
-224 -214 -207 -172 -151 -148 0
-225 -215 -207 -175 -151 -148 0
-226 -216 -207 -178 -151 -148 0
-227 -217 -207 -181 -151 -148 0
-228 -209 -208 -157 -154 -148 0
-229 -210 -208 -160 -154 -148 0
-230 -211 -208 -163 -154 -148 0
-231 -212 -208 -166 -154 -148 0
-232 -213 -208 -169 -154 -148 0
-233 -214 -208 -172 -154 -148 0
-234 -215 -208 -175 -154 -148 0
-235 -216 -208 -178 -154 -148 0
-236 -217 -208 -181 -154 -148 0
-237 -210 -209 -160 -157 -148 0
-238 -211 -209 -163 -157 -148 0
-239 -212 -209 -166 -157 -148 0
-240 -213 -209 -169 -157 -148 0
-241 -214 -209 -172 -157 -148 0
-242 -215 -209 -175 -157 -148 0
-243 -216 -209 -178 -157 -148 0
-244 -217 -209 -181 -157 -148 0
-245 -211 -210 -163 -160 -148 0
-246 -212 -210 -166 -160 -148 0
-247 -213 -210 -169 -160 -148 0
-248 -214 -210 -172 -160 -148 0
-249 -215 -210 -175 -160 -148 0
-250 -216 -210 -178 -160 -148 0
-251 -217 -210 -181 -160 -148 0
-252 -212 -211 -166 -163 -148 0
-253 -213 -211 -169 -163 -148 0
-254 -214 -211 -172 -163 -148 0
-255 -215 -211 -175 -163 -148 0
-256 -216 -211 -178 -163 -148 0
-257 -217 -211 -181 -163 -148 0
-258 -213 -212 -169 -166 -148 0
-259 -214 -212 -172 -166 -148 0
-260 -215 -212 -175 -166 -148 0
-261 -216 -212 -178 -166 -148 0
-262 -217 -212 -181 -166 -148 0
-263 -214 -213 -172 -169 -148 0
-264 -215 -213 -175 -169 -148 0
-265 -216 -213 -178 -169 -148 0
-266 -217 -213 -181 -169 -148 0
-267 -215 -214 -175 -172 -148 0
-268 -216 -214 -178 -172 -148 0
-269 -217 -214 -181 -172 -148 0
-270 -216 -215 -178 -175 -148 0
-271 -217 -215 -181 -175 -148 0
-272 -217 -216 -181 -178 -148 0
-228 -219 -218 -157 -154 -151 0
-229 -220 -218 -160 -154 -151 0
-230 -221 -218 -163 -154 -151 0
-231 -222 -218 -166 -154 -151 0
-232 -223 -218 -169 -154 -151 0
-233 -224 -218 -172 -154 -151 0
-234 -225 -218 -175 -154 -151 0
-235 -226 -218 -178 -154 -151 0
-236 -227 -218 -181 -154 -151 0
-237 -220 -219 -160 -157 -151 0
-238 -221 -219 -163 -157 -151 0
-239 -222 -219 -166 -157 -151 0
-240 -223 -219 -169 -157 -151 0
-241 -224 -219 -172 -157 -151 0
-242 -225 -219 -175 -157 -151 0
-243 -226 -219 -178 -157 -151 0
-244 -227 -219 -181 -157 -151 0
-245 -221 -220 -163 -160 -151 0
-246 -222 -220 -166 -160 -151 0
-247 -223 -220 -169 -160 -151 0
-248 -224 -220 -172 -160 -151 0
-249 -225 -220 -175 -160 -151 0
-250 -226 -220 -178 -160 -151 0
-251 -227 -220 -181 -160 -151 0
-252 -222 -221 -166 -163 -151 0
-253 -223 -221 -169 -163 -151 0
-254 -224 -221 -172 -163 -151 0
-255 -225 -221 -175 -163 -151 0
-256 -226 -221 -178 -163 -151 0
-257 -227 -221 -181 -163 -151 0
-258 -223 -222 -169 -166 -151 0
-259 -224 -222 -172 -166 -151 0
-260 -225 -222 -175 -166 -151 0
-261 -226 -222 -178 -166 -151 0
-262 -227 -222 -181 -166 -151 0
-263 -224 -223 -172 -169 -151 0
-264 -225 -223 -175 -169 -151 0
-265 -226 -223 -178 -169 -151 0
-266 -227 -223 -181 -169 -151 0
-267 -225 -224 -175 -172 -151 0
-268 -226 -224 -178 -172 -151 0
-269 -227 -224 -181 -172 -151 0
-270 -226 -225 -178 -175 -151 0
-271 -227 -225 -181 -175 -151 0
-272 -227 -226 -181 -178 -151 0
-237 -229 -228 -160 -157 -154 0
-238 -230 -228 -163 -157 -154 0
-239 -231 -228 -166 -157 -154 0
-240 -232 -228 -169 -157 -154 0
-241 -233 -228 -172 -157 -154 0
-242 -234 -228 -175 -157 -154 0
-243 -235 -228 -178 -157 -154 0
-244 -236 -228 -181 -157 -154 0
-245 -230 -229 -163 -160 -154 0
-246 -231 -229 -166 -160 -154 0
-247 -232 -229 -169 -160 -154 0
-248 -233 -229 -172 -160 -154 0
-249 -234 -229 -175 -160 -154 0
-250 -235 -229 -178 -160 -154 0
-251 -236 -229 -181 -160 -154 0
-252 -231 -230 -166 -163 -154 0
-253 -232 -230 -169 -163 -154 0
-254 -233 -230 -172 -163 -154 0
-255 -234 -230 -175 -163 -154 0
-256 -235 -230 -178 -163 -154 0
-257 -236 -230 -181 -163 -154 0
-258 -232 -231 -169 -166 -154 0
-259 -233 -231 -172 -166 -154 0
-260 -234 -231 -175 -166 -154 0
-261 -235 -231 -178 -166 -154 0
-262 -236 -231 -181 -166 -154 0
-263 -233 -232 -172 -169 -154 0
-264 -234 -232 -175 -169 -154 0
-265 -235 -232 -178 -169 -154 0
-266 -236 -232 -181 -169 -154 0
-267 -234 -233 -175 -172 -154 0
-268 -235 -233 -178 -172 -154 0
-269 -236 -233 -181 -172 -154 0
-270 -235 -234 -178 -175 -154 0
-271 -236 -234 -181 -175 -154 0
-272 -236 -235 -181 -178 -154 0
-245 -238 -237 -163 -160 -157 0
-246 -239 -237 -166 -160 -157 0
-247 -240 -237 -169 -160 -157 0
-248 -241 -237 -172 -160 -157 0
-249 -242 -237 -175 -160 -157 0
-250 -243 -237 -178 -160 -157 0
-251 -244 -237 -181 -160 -157 0
-252 -239 -238 -166 -163 -157 0
-253 -240 -238 -169 -163 -157 0
-254 -241 -238 -172 -163 -157 0
-255 -242 -238 -175 -163 -157 0
-256 -243 -238 -178 -163 -157 0
-257 -244 -238 -181 -163 -157 0
-258 -240 -239 -169 -166 -157 0
-259 -241 -239 -172 -166 -157 0
-260 -242 -239 -175 -166 -157 0
-261 -243 -239 -178 -166 -157 0
-262 -244 -239 -181 -166 -157 0
-263 -241 -240 -172 -169 -157 0
-264 -242 -240 -175 -169 -157 0
-265 -243 -240 -178 -169 -157 0
-266 -244 -240 -181 -169 -157 0
-267 -242 -241 -175 -172 -157 0
-268 -243 -241 -178 -172 -157 0
-269 -244 -241 -181 -172 -157 0
-270 -243 -242 -178 -175 -157 0
-271 -244 -242 -181 -175 -157 0
-272 -244 -243 -181 -178 -157 0
-252 -246 -245 -166 -163 -160 0
-253 -247 -245 -169 -163 -160 0
-254 -248 -245 -172 -163 -160 0
-255 -249 -245 -175 -163 -160 0
-256 -250 -245 -178 -163 -160 0
-257 -251 -245 -181 -163 -160 0
-258 -247 -246 -169 -166 -160 0
-259 -248 -246 -172 -166 -160 0
-260 -249 -246 -175 -166 -160 0
-261 -250 -246 -178 -166 -160 0
-262 -251 -246 -181 -166 -160 0
-263 -248 -247 -172 -169 -160 0
-264 -249 -247 -175 -169 -160 0
-265 -250 -247 -178 -169 -160 0
-266 -251 -247 -181 -169 -160 0
-267 -249 -248 -175 -172 -160 0
-268 -250 -248 -178 -172 -160 0
-269 -251 -248 -181 -172 -160 0
-270 -250 -249 -178 -175 -160 0
-271 -251 -249 -181 -175 -160 0
-272 -251 -250 -181 -178 -160 0
-258 -253 -252 -169 -166 -163 0
-259 -254 -252 -172 -166 -163 0
-260 -255 -252 -175 -166 -163 0
-261 -256 -252 -178 -166 -163 0
-262 -257 -252 -181 -166 -163 0
-263 -254 -253 -172 -169 -163 0
-264 -255 -253 -175 -169 -163 0
-265 -256 -253 -178 -169 -163 0
-266 -257 -253 -181 -169 -163 0
-267 -255 -254 -175 -172 -163 0
-268 -256 -254 -178 -172 -163 0
-269 -257 -254 -181 -172 -163 0
-270 -256 -255 -178 -175 -163 0
-271 -257 -255 -181 -175 -163 0
-272 -257 -256 -181 -178 -163 0
-263 -259 -258 -172 -169 -166 0
-264 -260 -258 -175 -169 -166 0
-265 -261 -258 -178 -169 -166 0
-266 -262 -258 -181 -169 -166 0
-267 -260 -259 -175 -172 -166 0
-268 -261 -259 -178 -172 -166 0
-269 -262 -259 -181 -172 -166 0
-270 -261 -260 -178 -175 -166 0
-271 -262 -260 -181 -175 -166 0
-272 -262 -261 -181 -178 -166 0
-267 -264 -263 -175 -172 -169 0
-268 -265 -263 -178 -172 -169 0
-269 -266 -263 -181 -172 -169 0
-270 -265 -264 -178 -175 -169 0
-271 -266 -264 -181 -175 -169 0
-272 -266 -265 -181 -178 -169 0
-270 -268 -267 -178 -175 -172 0
-271 -269 -267 -181 -175 -172 0
-272 -269 -268 -181 -178 -172 0
-272 -271 -270 -181 -178 -175 0
-182 -143 -137 -144 -138 -139 0
-183 -146 -137 -147 -138 -139 0
-184 -149 -137 -150 -138 -139 0
-185 -152 -137 -153 -138 -139 0
-186 -155 -137 -156 -138 -139 0
-187 -158 -137 -159 -138 -139 0
-188 -161 -137 -162 -138 -139 0
-189 -164 -137 -165 -138 -139 0
-190 -167 -137 -168 -138 -139 0
-191 -170 -137 -171 -138 -139 0
-192 -173 -137 -174 -138 -139 0
-193 -176 -137 -177 -138 -139 0
-194 -179 -137 -180 -138 -139 0
-195 -146 -143 -147 -144 -139 0
-196 -149 -143 -150 -144 -139 0
-197 -152 -143 -153 -144 -139 0
-198 -155 -143 -156 -144 -139 0
-199 -158 -143 -159 -144 -139 0
-200 -161 -143 -162 -144 -139 0
-201 -164 -143 -165 -144 -139 0
-202 -167 -143 -168 -144 -139 0
-203 -170 -143 -171 -144 -139 0
-204 -173 -143 -174 -144 -139 0
-205 -176 -143 -177 -144 -139 0
-206 -179 -143 -180 -144 -139 0
-207 -149 -146 -150 -147 -139 0
-208 -152 -146 -153 -147 -139 0
-209 -155 -146 -156 -147 -139 0
-210 -158 -146 -159 -147 -139 0
-211 -161 -146 -162 -147 -139 0
-212 -164 -146 -165 -147 -139 0
-213 -167 -146 -168 -147 -139 0
-214 -170 -146 -171 -147 -139 0
-215 -173 -146 -174 -147 -139 0
-216 -176 -146 -177 -147 -139 0
-217 -179 -146 -180 -147 -139 0
-218 -152 -149 -153 -150 -139 0
-219 -155 -149 -156 -150 -139 0
-220 -158 -149 -159 -150 -139 0
-221 -161 -149 -162 -150 -139 0
-222 -164 -149 -165 -150 -139 0
-223 -167 -149 -168 -150 -139 0
-224 -170 -149 -171 -150 -139 0
-225 -173 -149 -174 -150 -139 0
-226 -176 -149 -177 -150 -139 0
-227 -179 -149 -180 -150 -139 0
-228 -155 -152 -156 -153 -139 0
-229 -158 -152 -159 -153 -139 0
-230 -161 -152 -162 -153 -139 0
-231 -164 -152 -165 -153 -139 0
-232 -167 -152 -168 -153 -139 0
-233 -170 -152 -171 -153 -139 0
-234 -173 -152 -174 -153 -139 0
-235 -176 -152 -177 -153 -139 0
-236 -179 -152 -180 -153 -139 0
-237 -158 -155 -159 -156 -139 0
-238 -161 -155 -162 -156 -139 0
-239 -164 -155 -165 -156 -139 0
-240 -167 -155 -168 -156 -139 0
-241 -170 -155 -171 -156 -139 0
-242 -173 -155 -174 -156 -139 0
-243 -176 -155 -177 -156 -139 0
-244 -179 -155 -180 -156 -139 0
-245 -161 -158 -162 -159 -139 0
-246 -164 -158 -165 -159 -139 0
-247 -167 -158 -168 -159 -139 0
-248 -170 -158 -171 -159 -139 0
-249 -173 -158 -174 -159 -139 0
-250 -176 -158 -177 -159 -139 0
-251 -179 -158 -180 -159 -139 0
-252 -164 -161 -165 -162 -139 0
-253 -167 -161 -168 -162 -139 0
-254 -170 -161 -171 -162 -139 0
-255 -173 -161 -174 -162 -139 0
-256 -176 -161 -177 -162 -139 0
-257 -179 -161 -180 -162 -139 0
-258 -167 -164 -168 -165 -139 0
-259 -170 -164 -171 -165 -139 0
-260 -173 -164 -174 -165 -139 0
-261 -176 -164 -177 -165 -139 0
-262 -179 -164 -180 -165 -139 0
-263 -170 -167 -171 -168 -139 0
-264 -173 -167 -174 -168 -139 0
-265 -176 -167 -177 -168 -139 0
-266 -179 -167 -180 -168 -139 0
-267 -173 -170 -174 -171 -139 0
-268 -176 -170 -177 -171 -139 0
-269 -179 -170 -180 -171 -139 0
-270 -176 -173 -177 -174 -139 0
-271 -179 -173 -180 -174 -139 0
-272 -179 -176 -180 -177 -139 0
-195 -183 -182 -147 -144 -138 0
-196 -184 -182 -150 -144 -138 0
-197 -185 -182 -153 -144 -138 0
-198 -186 -182 -156 -144 -138 0
-199 -187 -182 -159 -144 -138 0
-200 -188 -182 -162 -144 -138 0
-201 -189 -182 -165 -144 -138 0
-202 -190 -182 -168 -144 -138 0
-203 -191 -182 -171 -144 -138 0
-204 -192 -182 -174 -144 -138 0
-205 -193 -182 -177 -144 -138 0
-206 -194 -182 -180 -144 -138 0
-207 -184 -183 -150 -147 -138 0
-208 -185 -183 -153 -147 -138 0
-209 -186 -183 -156 -147 -138 0
-210 -187 -183 -159 -147 -138 0
-211 -188 -183 -162 -147 -138 0
-212 -189 -183 -165 -147 -138 0
-213 -190 -183 -168 -147 -138 0
-214 -191 -183 -171 -147 -138 0
-215 -192 -183 -174 -147 -138 0
-216 -193 -183 -177 -147 -138 0
-217 -194 -183 -180 -147 -138 0
-218 -185 -184 -153 -150 -138 0
-219 -186 -184 -156 -150 -138 0
-220 -187 -184 -159 -150 -138 0
-221 -188 -184 -162 -150 -138 0
-222 -189 -184 -165 -150 -138 0
-223 -190 -184 -168 -150 -138 0
-224 -191 -184 -171 -150 -138 0
-225 -192 -184 -174 -150 -138 0
-226 -193 -184 -177 -150 -138 0
-227 -194 -184 -180 -150 -138 0
-228 -186 -185 -156 -153 -138 0
-229 -187 -185 -159 -153 -138 0
-230 -188 -185 -162 -153 -138 0
-231 -189 -185 -165 -153 -138 0
-232 -190 -185 -168 -153 -138 0
-233 -191 -185 -171 -153 -138 0
-234 -192 -185 -174 -153 -138 0
-235 -193 -185 -177 -153 -138 0
-236 -194 -185 -180 -153 -138 0
-237 -187 -186 -159 -156 -138 0
-238 -188 -186 -162 -156 -138 0
-239 -189 -186 -165 -156 -138 0
-240 -190 -186 -168 -156 -138 0
-241 -191 -186 -171 -156 -138 0
-242 -192 -186 -174 -156 -138 0
-243 -193 -186 -177 -156 -138 0
-244 -194 -186 -180 -156 -138 0
-245 -188 -187 -162 -159 -138 0
-246 -189 -187 -165 -159 -138 0
-247 -190 -187 -168 -159 -138 0
-248 -191 -187 -171 -159 -138 0
-249 -192 -187 -174 -159 -138 0
-250 -193 -187 -177 -159 -138 0
-251 -194 -187 -180 -159 -138 0
-252 -189 -188 -165 -162 -138 0
-253 -190 -188 -168 -162 -138 0
-254 -191 -188 -171 -162 -138 0
-255 -192 -188 -174 -162 -138 0
-256 -193 -188 -177 -162 -138 0
-257 -194 -188 -180 -162 -138 0
-258 -190 -189 -168 -165 -138 0
-259 -191 -189 -171 -165 -138 0
-260 -192 -189 -174 -165 -138 0
-261 -193 -189 -177 -165 -138 0
-262 -194 -189 -180 -165 -138 0
-263 -191 -190 -171 -168 -138 0
-264 -192 -190 -174 -168 -138 0
-265 -193 -190 -177 -168 -138 0
-266 -194 -190 -180 -168 -138 0
-267 -192 -191 -174 -171 -138 0
-268 -193 -191 -177 -171 -138 0
-269 -194 -191 -180 -171 -138 0
-270 -193 -192 -177 -174 -138 0
-271 -194 -192 -180 -174 -138 0
-272 -194 -193 -180 -177 -138 0
-207 -196 -195 -150 -147 -144 0
-208 -197 -195 -153 -147 -144 0
-209 -198 -195 -156 -147 -144 0
-210 -199 -195 -159 -147 -144 0
-211 -200 -195 -162 -147 -144 0
-212 -201 -195 -165 -147 -144 0
-213 -202 -195 -168 -147 -144 0
-214 -203 -195 -171 -147 -144 0
-215 -204 -195 -174 -147 -144 0
-216 -205 -195 -177 -147 -144 0
-217 -206 -195 -180 -147 -144 0
-218 -197 -196 -153 -150 -144 0
-219 -198 -196 -156 -150 -144 0
-220 -199 -196 -159 -150 -144 0
-221 -200 -196 -162 -150 -144 0
-222 -201 -196 -165 -150 -144 0
-223 -202 -196 -168 -150 -144 0
-224 -203 -196 -171 -150 -144 0
-225 -204 -196 -174 -150 -144 0
-226 -205 -196 -177 -150 -144 0
-227 -206 -196 -180 -150 -144 0
-228 -198 -197 -156 -153 -144 0
-229 -199 -197 -159 -153 -144 0
-230 -200 -197 -162 -153 -144 0
-231 -201 -197 -165 -153 -144 0
-232 -202 -197 -168 -153 -144 0
-233 -203 -197 -171 -153 -144 0
-234 -204 -197 -174 -153 -144 0
-235 -205 -197 -177 -153 -144 0
-236 -206 -197 -180 -153 -144 0
-237 -199 -198 -159 -156 -144 0
-238 -200 -198 -162 -156 -144 0
-239 -201 -198 -165 -156 -144 0
-240 -202 -198 -168 -156 -144 0
-241 -203 -198 -171 -156 -144 0
-242 -204 -198 -174 -156 -144 0
-243 -205 -198 -177 -156 -144 0
-244 -206 -198 -180 -156 -144 0
-245 -200 -199 -162 -159 -144 0
-246 -201 -199 -165 -159 -144 0
-247 -202 -199 -168 -159 -144 0
-248 -203 -199 -171 -159 -144 0
-249 -204 -199 -174 -159 -144 0
-250 -205 -199 -177 -159 -144 0
-251 -206 -199 -180 -159 -144 0
-252 -201 -200 -165 -162 -144 0
-253 -202 -200 -168 -162 -144 0
-254 -203 -200 -171 -162 -144 0
-255 -204 -200 -174 -162 -144 0
-256 -205 -200 -177 -162 -144 0
-257 -206 -200 -180 -162 -144 0
-258 -202 -201 -168 -165 -144 0
-259 -203 -201 -171 -165 -144 0
-260 -204 -201 -174 -165 -144 0
-261 -205 -201 -177 -165 -144 0
-262 -206 -201 -180 -165 -144 0
-263 -203 -202 -171 -168 -144 0
-264 -204 -202 -174 -168 -144 0
-265 -205 -202 -177 -168 -144 0
-266 -206 -202 -180 -168 -144 0
-267 -204 -203 -174 -171 -144 0
-268 -205 -203 -177 -171 -144 0
-269 -206 -203 -180 -171 -144 0
-270 -205 -204 -177 -174 -144 0
-271 -206 -204 -180 -174 -144 0
-272 -206 -205 -180 -177 -144 0
-218 -208 -207 -153 -150 -147 0
-219 -209 -207 -156 -150 -147 0
-220 -210 -207 -159 -150 -147 0
-221 -211 -207 -162 -150 -147 0
-222 -212 -207 -165 -150 -147 0
-223 -213 -207 -168 -150 -147 0
-224 -214 -207 -171 -150 -147 0
-225 -215 -207 -174 -150 -147 0
-226 -216 -207 -177 -150 -147 0
-227 -217 -207 -180 -150 -147 0
-228 -209 -208 -156 -153 -147 0
-229 -210 -208 -159 -153 -147 0
-230 -211 -208 -162 -153 -147 0
-231 -212 -208 -165 -153 -147 0
-232 -213 -208 -168 -153 -147 0
-233 -214 -208 -171 -153 -147 0
-234 -215 -208 -174 -153 -147 0
-235 -216 -208 -177 -153 -147 0
-236 -217 -208 -180 -153 -147 0
-237 -210 -209 -159 -156 -147 0
-238 -211 -209 -162 -156 -147 0
-239 -212 -209 -165 -156 -147 0
-240 -213 -209 -168 -156 -147 0
-241 -214 -209 -171 -156 -147 0
-242 -215 -209 -174 -156 -147 0
-243 -216 -209 -177 -156 -147 0
-244 -217 -209 -180 -156 -147 0
-245 -211 -210 -162 -159 -147 0
-246 -212 -210 -165 -159 -147 0
-247 -213 -210 -168 -159 -147 0
-248 -214 -210 -171 -159 -147 0
-249 -215 -210 -174 -159 -147 0
-250 -216 -210 -177 -159 -147 0
-251 -217 -210 -180 -159 -147 0
-252 -212 -211 -165 -162 -147 0
-253 -213 -211 -168 -162 -147 0
-254 -214 -211 -171 -162 -147 0
-255 -215 -211 -174 -162 -147 0
-256 -216 -211 -177 -162 -147 0
-257 -217 -211 -180 -162 -147 0
-258 -213 -212 -168 -165 -147 0
-259 -214 -212 -171 -165 -147 0
-260 -215 -212 -174 -165 -147 0
-261 -216 -212 -177 -165 -147 0
-262 -217 -212 -180 -165 -147 0
-263 -214 -213 -171 -168 -147 0
-264 -215 -213 -174 -168 -147 0
-265 -216 -213 -177 -168 -147 0
-266 -217 -213 -180 -168 -147 0
-267 -215 -214 -174 -171 -147 0
-268 -216 -214 -177 -171 -147 0
-269 -217 -214 -180 -171 -147 0
-270 -216 -215 -177 -174 -147 0
-271 -217 -215 -180 -174 -147 0
-272 -217 -216 -180 -177 -147 0
-228 -219 -218 -156 -153 -150 0
-229 -220 -218 -159 -153 -150 0
-230 -221 -218 -162 -153 -150 0
-231 -222 -218 -165 -153 -150 0
-232 -223 -218 -168 -153 -150 0
-233 -224 -218 -171 -153 -150 0
-234 -225 -218 -174 -153 -150 0
-235 -226 -218 -177 -153 -150 0
-236 -227 -218 -180 -153 -150 0
-237 -220 -219 -159 -156 -150 0
-238 -221 -219 -162 -156 -150 0
-239 -222 -219 -165 -156 -150 0
-240 -223 -219 -168 -156 -150 0
-241 -224 -219 -171 -156 -150 0
-242 -225 -219 -174 -156 -150 0
-243 -226 -219 -177 -156 -150 0
-244 -227 -219 -180 -156 -150 0
-245 -221 -220 -162 -159 -150 0
-246 -222 -220 -165 -159 -150 0
-247 -223 -220 -168 -159 -150 0
-248 -224 -220 -171 -159 -150 0
-249 -225 -220 -174 -159 -150 0
-250 -226 -220 -177 -159 -150 0
-251 -227 -220 -180 -159 -150 0
-252 -222 -221 -165 -162 -150 0
-253 -223 -221 -168 -162 -150 0
-254 -224 -221 -171 -162 -150 0
-255 -225 -221 -174 -162 -150 0
-256 -226 -221 -177 -162 -150 0
-257 -227 -221 -180 -162 -150 0
-258 -223 -222 -168 -165 -150 0
-259 -224 -222 -171 -165 -150 0
-260 -225 -222 -174 -165 -150 0
-261 -226 -222 -177 -165 -150 0
-262 -227 -222 -180 -165 -150 0
-263 -224 -223 -171 -168 -150 0
-264 -225 -223 -174 -168 -150 0
-265 -226 -223 -177 -168 -150 0
-266 -227 -223 -180 -168 -150 0
-267 -225 -224 -174 -171 -150 0
-268 -226 -224 -177 -171 -150 0
-269 -227 -224 -180 -171 -150 0
-270 -226 -225 -177 -174 -150 0
-271 -227 -225 -180 -174 -150 0
-272 -227 -226 -180 -177 -150 0
-237 -229 -228 -159 -156 -153 0
-238 -230 -228 -162 -156 -153 0
-239 -231 -228 -165 -156 -153 0
-240 -232 -228 -168 -156 -153 0
-241 -233 -228 -171 -156 -153 0
-242 -234 -228 -174 -156 -153 0
-243 -235 -228 -177 -156 -153 0
-244 -236 -228 -180 -156 -153 0
-245 -230 -229 -162 -159 -153 0
-246 -231 -229 -165 -159 -153 0
-247 -232 -229 -168 -159 -153 0
-248 -233 -229 -171 -159 -153 0
-249 -234 -229 -174 -159 -153 0
-250 -235 -229 -177 -159 -153 0
-251 -236 -229 -180 -159 -153 0
-252 -231 -230 -165 -162 -153 0
-253 -232 -230 -168 -162 -153 0
-254 -233 -230 -171 -162 -153 0
-255 -234 -230 -174 -162 -153 0
-256 -235 -230 -177 -162 -153 0
-257 -236 -230 -180 -162 -153 0
-258 -232 -231 -168 -165 -153 0
-259 -233 -231 -171 -165 -153 0
-260 -234 -231 -174 -165 -153 0
-261 -235 -231 -177 -165 -153 0
-262 -236 -231 -180 -165 -153 0
-263 -233 -232 -171 -168 -153 0
-264 -234 -232 -174 -168 -153 0
-265 -235 -232 -177 -168 -153 0
-266 -236 -232 -180 -168 -153 0
-267 -234 -233 -174 -171 -153 0
-268 -235 -233 -177 -171 -153 0
-269 -236 -233 -180 -171 -153 0
-270 -235 -234 -177 -174 -153 0
-271 -236 -234 -180 -174 -153 0
-272 -236 -235 -180 -177 -153 0
-245 -238 -237 -162 -159 -156 0
-246 -239 -237 -165 -159 -156 0
-247 -240 -237 -168 -159 -156 0
-248 -241 -237 -171 -159 -156 0
-249 -242 -237 -174 -159 -156 0
-250 -243 -237 -177 -159 -156 0
-251 -244 -237 -180 -159 -156 0
-252 -239 -238 -165 -162 -156 0
-253 -240 -238 -168 -162 -156 0
-254 -241 -238 -171 -162 -156 0
-255 -242 -238 -174 -162 -156 0
-256 -243 -238 -177 -162 -156 0
-257 -244 -238 -180 -162 -156 0
-258 -240 -239 -168 -165 -156 0
-259 -241 -239 -171 -165 -156 0
-260 -242 -239 -174 -165 -156 0
-261 -243 -239 -177 -165 -156 0
-262 -244 -239 -180 -165 -156 0
-263 -241 -240 -171 -168 -156 0
-264 -242 -240 -174 -168 -156 0
-265 -243 -240 -177 -168 -156 0
-266 -244 -240 -180 -168 -156 0
-267 -242 -241 -174 -171 -156 0
-268 -243 -241 -177 -171 -156 0
-269 -244 -241 -180 -171 -156 0
-270 -243 -242 -177 -174 -156 0
-271 -244 -242 -180 -174 -156 0
-272 -244 -243 -180 -177 -156 0
-252 -246 -245 -165 -162 -159 0
-253 -247 -245 -168 -162 -159 0
-254 -248 -245 -171 -162 -159 0
-255 -249 -245 -174 -162 -159 0
-256 -250 -245 -177 -162 -159 0
-257 -251 -245 -180 -162 -159 0
-258 -247 -246 -168 -165 -159 0
-259 -248 -246 -171 -165 -159 0
-260 -249 -246 -174 -165 -159 0
-261 -250 -246 -177 -165 -159 0
-262 -251 -246 -180 -165 -159 0
-263 -248 -247 -171 -168 -159 0
-264 -249 -247 -174 -168 -159 0
-265 -250 -247 -177 -168 -159 0
-266 -251 -247 -180 -168 -159 0
-267 -249 -248 -174 -171 -159 0
-268 -250 -248 -177 -171 -159 0
-269 -251 -248 -180 -171 -159 0
-270 -250 -249 -177 -174 -159 0
-271 -251 -249 -180 -174 -159 0
-272 -251 -250 -180 -177 -159 0
-258 -253 -252 -168 -165 -162 0
-259 -254 -252 -171 -165 -162 0
-260 -255 -252 -174 -165 -162 0
-261 -256 -252 -177 -165 -162 0
-262 -257 -252 -180 -165 -162 0
-263 -254 -253 -171 -168 -162 0
-264 -255 -253 -174 -168 -162 0
-265 -256 -253 -177 -168 -162 0
-266 -257 -253 -180 -168 -162 0
-267 -255 -254 -174 -171 -162 0
-268 -256 -254 -177 -171 -162 0
-269 -257 -254 -180 -171 -162 0
-270 -256 -255 -177 -174 -162 0
-271 -257 -255 -180 -174 -162 0
-272 -257 -256 -180 -177 -162 0
-263 -259 -258 -171 -168 -165 0
-264 -260 -258 -174 -168 -165 0
-265 -261 -258 -177 -168 -165 0
-266 -262 -258 -180 -168 -165 0
-267 -260 -259 -174 -171 -165 0
-268 -261 -259 -177 -171 -165 0
-269 -262 -259 -180 -171 -165 0
-270 -261 -260 -177 -174 -165 0
-271 -262 -260 -180 -174 -165 0
-272 -262 -261 -180 -177 -165 0
-267 -264 -263 -174 -171 -168 0
-268 -265 -263 -177 -171 -168 0
-269 -266 -263 -180 -171 -168 0
-270 -265 -264 -177 -174 -168 0
-271 -266 -264 -180 -174 -168 0
-272 -266 -265 -180 -177 -168 0
-270 -268 -267 -177 -174 -171 0
-271 -269 -267 -180 -174 -171 0
-272 -269 -268 -180 -177 -171 0
-272 -271 -270 -180 -177 -174 0
-195 -183 -182 -146 -143 -137 0
-196 -184 -182 -149 -143 -137 0
-197 -185 -182 -152 -143 -137 0
-198 -186 -182 -155 -143 -137 0
-199 -187 -182 -158 -143 -137 0
-200 -188 -182 -161 -143 -137 0
-201 -189 -182 -164 -143 -137 0
-202 -190 -182 -167 -143 -137 0
-203 -191 -182 -170 -143 -137 0
-204 -192 -182 -173 -143 -137 0
-205 -193 -182 -176 -143 -137 0
-206 -194 -182 -179 -143 -137 0
-207 -184 -183 -149 -146 -137 0
-208 -185 -183 -152 -146 -137 0
-209 -186 -183 -155 -146 -137 0
-210 -187 -183 -158 -146 -137 0
-211 -188 -183 -161 -146 -137 0
-212 -189 -183 -164 -146 -137 0
-213 -190 -183 -167 -146 -137 0
-214 -191 -183 -170 -146 -137 0
-215 -192 -183 -173 -146 -137 0
-216 -193 -183 -176 -146 -137 0
-217 -194 -183 -179 -146 -137 0
-218 -185 -184 -152 -149 -137 0
-219 -186 -184 -155 -149 -137 0
-220 -187 -184 -158 -149 -137 0
-221 -188 -184 -161 -149 -137 0
-222 -189 -184 -164 -149 -137 0
-223 -190 -184 -167 -149 -137 0
-224 -191 -184 -170 -149 -137 0
-225 -192 -184 -173 -149 -137 0
-226 -193 -184 -176 -149 -137 0
-227 -194 -184 -179 -149 -137 0
-228 -186 -185 -155 -152 -137 0
-229 -187 -185 -158 -152 -137 0
-230 -188 -185 -161 -152 -137 0
-231 -189 -185 -164 -152 -137 0
-232 -190 -185 -167 -152 -137 0
-233 -191 -185 -170 -152 -137 0
-234 -192 -185 -173 -152 -137 0
-235 -193 -185 -176 -152 -137 0
-236 -194 -185 -179 -152 -137 0
-237 -187 -186 -158 -155 -137 0
-238 -188 -186 -161 -155 -137 0
-239 -189 -186 -164 -155 -137 0
-240 -190 -186 -167 -155 -137 0
-241 -191 -186 -170 -155 -137 0
-242 -192 -186 -173 -155 -137 0
-243 -193 -186 -176 -155 -137 0
-244 -194 -186 -179 -155 -137 0
-245 -188 -187 -161 -158 -137 0
-246 -189 -187 -164 -158 -137 0
-247 -190 -187 -167 -158 -137 0
-248 -191 -187 -170 -158 -137 0
-249 -192 -187 -173 -158 -137 0
-250 -193 -187 -176 -158 -137 0
-251 -194 -187 -179 -158 -137 0
-252 -189 -188 -164 -161 -137 0
-253 -190 -188 -167 -161 -137 0
-254 -191 -188 -170 -161 -137 0
-255 -192 -188 -173 -161 -137 0
-256 -193 -188 -176 -161 -137 0
-257 -194 -188 -179 -161 -137 0
-258 -190 -189 -167 -164 -137 0
-259 -191 -189 -170 -164 -137 0
-260 -192 -189 -173 -164 -137 0
-261 -193 -189 -176 -164 -137 0
-262 -194 -189 -179 -164 -137 0
-263 -191 -190 -170 -167 -137 0
-264 -192 -190 -173 -167 -137 0
-265 -193 -190 -176 -167 -137 0
-266 -194 -190 -179 -167 -137 0
-267 -192 -191 -173 -170 -137 0
-268 -193 -191 -176 -170 -137 0
-269 -194 -191 -179 -170 -137 0
-270 -193 -192 -176 -173 -137 0
-271 -194 -192 -179 -173 -137 0
-272 -194 -193 -179 -176 -137 0
-207 -196 -195 -149 -146 -143 0
-208 -197 -195 -152 -146 -143 0
-209 -198 -195 -155 -146 -143 0
-210 -199 -195 -158 -146 -143 0
-211 -200 -195 -161 -146 -143 0
-212 -201 -195 -164 -146 -143 0
-213 -202 -195 -167 -146 -143 0
-214 -203 -195 -170 -146 -143 0
-215 -204 -195 -173 -146 -143 0
-216 -205 -195 -176 -146 -143 0
-217 -206 -195 -179 -146 -143 0
-218 -197 -196 -152 -149 -143 0
-219 -198 -196 -155 -149 -143 0
-220 -199 -196 -158 -149 -143 0
-221 -200 -196 -161 -149 -143 0
-222 -201 -196 -164 -149 -143 0
-223 -202 -196 -167 -149 -143 0
-224 -203 -196 -170 -149 -143 0
-225 -204 -196 -173 -149 -143 0
-226 -205 -196 -176 -149 -143 0
-227 -206 -196 -179 -149 -143 0
-228 -198 -197 -155 -152 -143 0
-229 -199 -197 -158 -152 -143 0
-230 -200 -197 -161 -152 -143 0
-231 -201 -197 -164 -152 -143 0
-232 -202 -197 -167 -152 -143 0
-233 -203 -197 -170 -152 -143 0
-234 -204 -197 -173 -152 -143 0
-235 -205 -197 -176 -152 -143 0
-236 -206 -197 -179 -152 -143 0
-237 -199 -198 -158 -155 -143 0
-238 -200 -198 -161 -155 -143 0
-239 -201 -198 -164 -155 -143 0
-240 -202 -198 -167 -155 -143 0
-241 -203 -198 -170 -155 -143 0
-242 -204 -198 -173 -155 -143 0
-243 -205 -198 -176 -155 -143 0
-244 -206 -198 -179 -155 -143 0
-245 -200 -199 -161 -158 -143 0
-246 -201 -199 -164 -158 -143 0
-247 -202 -199 -167 -158 -143 0
-248 -203 -199 -170 -158 -143 0
-249 -204 -199 -173 -158 -143 0
-250 -205 -199 -176 -158 -143 0
-251 -206 -199 -179 -158 -143 0
-252 -201 -200 -164 -161 -143 0
-253 -202 -200 -167 -161 -143 0
-254 -203 -200 -170 -161 -143 0
-255 -204 -200 -173 -161 -143 0
-256 -205 -200 -176 -161 -143 0
-257 -206 -200 -179 -161 -143 0
-258 -202 -201 -167 -164 -143 0
-259 -203 -201 -170 -164 -143 0
-260 -204 -201 -173 -164 -143 0
-261 -205 -201 -176 -164 -143 0
-262 -206 -201 -179 -164 -143 0
-263 -203 -202 -170 -167 -143 0
-264 -204 -202 -173 -167 -143 0
-265 -205 -202 -176 -167 -143 0
-266 -206 -202 -179 -167 -143 0
-267 -204 -203 -173 -170 -143 0
-268 -205 -203 -176 -170 -143 0
-269 -206 -203 -179 -170 -143 0
-270 -205 -204 -176 -173 -143 0
-271 -206 -204 -179 -173 -143 0
-272 -206 -205 -179 -176 -143 0
-218 -208 -207 -152 -149 -146 0
-219 -209 -207 -155 -149 -146 0
-220 -210 -207 -158 -149 -146 0
-221 -211 -207 -161 -149 -146 0
-222 -212 -207 -164 -149 -146 0
-223 -213 -207 -167 -149 -146 0
-224 -214 -207 -170 -149 -146 0
-225 -215 -207 -173 -149 -146 0
-226 -216 -207 -176 -149 -146 0
-227 -217 -207 -179 -149 -146 0
-228 -209 -208 -155 -152 -146 0
-229 -210 -208 -158 -152 -146 0
-230 -211 -208 -161 -152 -146 0
-231 -212 -208 -164 -152 -146 0
-232 -213 -208 -167 -152 -146 0
-233 -214 -208 -170 -152 -146 0
-234 -215 -208 -173 -152 -146 0
-235 -216 -208 -176 -152 -146 0
-236 -217 -208 -179 -152 -146 0
-237 -210 -209 -158 -155 -146 0
-238 -211 -209 -161 -155 -146 0
-239 -212 -209 -164 -155 -146 0
-240 -213 -209 -167 -155 -146 0
-241 -214 -209 -170 -155 -146 0
-242 -215 -209 -173 -155 -146 0
-243 -216 -209 -176 -155 -146 0
-244 -217 -209 -179 -155 -146 0
-245 -211 -210 -161 -158 -146 0
-246 -212 -210 -164 -158 -146 0
-247 -213 -210 -167 -158 -146 0
-248 -214 -210 -170 -158 -146 0
-249 -215 -210 -173 -158 -146 0
-250 -216 -210 -176 -158 -146 0
-251 -217 -210 -179 -158 -146 0
-252 -212 -211 -164 -161 -146 0
-253 -213 -211 -167 -161 -146 0
-254 -214 -211 -170 -161 -146 0
-255 -215 -211 -173 -161 -146 0
-256 -216 -211 -176 -161 -146 0
-257 -217 -211 -179 -161 -146 0
-258 -213 -212 -167 -164 -146 0
-259 -214 -212 -170 -164 -146 0
-260 -215 -212 -173 -164 -146 0
-261 -216 -212 -176 -164 -146 0
-262 -217 -212 -179 -164 -146 0
-263 -214 -213 -170 -167 -146 0
-264 -215 -213 -173 -167 -146 0
-265 -216 -213 -176 -167 -146 0
-266 -217 -213 -179 -167 -146 0
-267 -215 -214 -173 -170 -146 0
-268 -216 -214 -176 -170 -146 0
-269 -217 -214 -179 -170 -146 0
-270 -216 -215 -176 -173 -146 0
-271 -217 -215 -179 -173 -146 0
-272 -217 -216 -179 -176 -146 0
-228 -219 -218 -155 -152 -149 0
-229 -220 -218 -158 -152 -149 0
-230 -221 -218 -161 -152 -149 0
-231 -222 -218 -164 -152 -149 0
-232 -223 -218 -167 -152 -149 0
-233 -224 -218 -170 -152 -149 0
-234 -225 -218 -173 -152 -149 0
-235 -226 -218 -176 -152 -149 0
-236 -227 -218 -179 -152 -149 0
-237 -220 -219 -158 -155 -149 0
-238 -221 -219 -161 -155 -149 0
-239 -222 -219 -164 -155 -149 0
-240 -223 -219 -167 -155 -149 0
-241 -224 -219 -170 -155 -149 0
-242 -225 -219 -173 -155 -149 0
-243 -226 -219 -176 -155 -149 0
-244 -227 -219 -179 -155 -149 0
-245 -221 -220 -161 -158 -149 0
-246 -222 -220 -164 -158 -149 0
-247 -223 -220 -167 -158 -149 0
-248 -224 -220 -170 -158 -149 0
-249 -225 -220 -173 -158 -149 0
-250 -226 -220 -176 -158 -149 0
-251 -227 -220 -179 -158 -149 0
-252 -222 -221 -164 -161 -149 0
-253 -223 -221 -167 -161 -149 0
-254 -224 -221 -170 -161 -149 0
-255 -225 -221 -173 -161 -149 0
-256 -226 -221 -176 -161 -149 0
-257 -227 -221 -179 -161 -149 0
-258 -223 -222 -167 -164 -149 0
-259 -224 -222 -170 -164 -149 0
-260 -225 -222 -173 -164 -149 0
-261 -226 -222 -176 -164 -149 0
-262 -227 -222 -179 -164 -149 0
-263 -224 -223 -170 -167 -149 0
-264 -225 -223 -173 -167 -149 0
-265 -226 -223 -176 -167 -149 0
-266 -227 -223 -179 -167 -149 0
-267 -225 -224 -173 -170 -149 0
-268 -226 -224 -176 -170 -149 0
-269 -227 -224 -179 -170 -149 0
-270 -226 -225 -176 -173 -149 0
-271 -227 -225 -179 -173 -149 0
-272 -227 -226 -179 -176 -149 0
-237 -229 -228 -158 -155 -152 0
-238 -230 -228 -161 -155 -152 0
-239 -231 -228 -164 -155 -152 0
-240 -232 -228 -167 -155 -152 0
-241 -233 -228 -170 -155 -152 0
-242 -234 -228 -173 -155 -152 0
-243 -235 -228 -176 -155 -152 0
-244 -236 -228 -179 -155 -152 0
-245 -230 -229 -161 -158 -152 0
-246 -231 -229 -164 -158 -152 0
-247 -232 -229 -167 -158 -152 0
-248 -233 -229 -170 -158 -152 0
-249 -234 -229 -173 -158 -152 0
-250 -235 -229 -176 -158 -152 0
-251 -236 -229 -179 -158 -152 0
-252 -231 -230 -164 -161 -152 0
-253 -232 -230 -167 -161 -152 0
-254 -233 -230 -170 -161 -152 0
-255 -234 -230 -173 -161 -152 0
-256 -235 -230 -176 -161 -152 0
-257 -236 -230 -179 -161 -152 0
-258 -232 -231 -167 -164 -152 0
-259 -233 -231 -170 -164 -152 0
-260 -234 -231 -173 -164 -152 0
-261 -235 -231 -176 -164 -152 0
-262 -236 -231 -179 -164 -152 0
-263 -233 -232 -170 -167 -152 0
-264 -234 -232 -173 -167 -152 0
-265 -235 -232 -176 -167 -152 0
-266 -236 -232 -179 -167 -152 0
-267 -234 -233 -173 -170 -152 0
-268 -235 -233 -176 -170 -152 0
-269 -236 -233 -179 -170 -152 0
-270 -235 -234 -176 -173 -152 0
-271 -236 -234 -179 -173 -152 0
-272 -236 -235 -179 -176 -152 0
-245 -238 -237 -161 -158 -155 0
-246 -239 -237 -164 -158 -155 0
-247 -240 -237 -167 -158 -155 0
-248 -241 -237 -170 -158 -155 0
-249 -242 -237 -173 -158 -155 0
-250 -243 -237 -176 -158 -155 0
-251 -244 -237 -179 -158 -155 0
-252 -239 -238 -164 -161 -155 0
-253 -240 -238 -167 -161 -155 0
-254 -241 -238 -170 -161 -155 0
-255 -242 -238 -173 -161 -155 0
-256 -243 -238 -176 -161 -155 0
-257 -244 -238 -179 -161 -155 0
-258 -240 -239 -167 -164 -155 0
-259 -241 -239 -170 -164 -155 0
-260 -242 -239 -173 -164 -155 0
-261 -243 -239 -176 -164 -155 0
-262 -244 -239 -179 -164 -155 0
-263 -241 -240 -170 -167 -155 0
-264 -242 -240 -173 -167 -155 0
-265 -243 -240 -176 -167 -155 0
-266 -244 -240 -179 -167 -155 0
-267 -242 -241 -173 -170 -155 0
-268 -243 -241 -176 -170 -155 0
-269 -244 -241 -179 -170 -155 0
-270 -243 -242 -176 -173 -155 0
-271 -244 -242 -179 -173 -155 0
-272 -244 -243 -179 -176 -155 0
-252 -246 -245 -164 -161 -158 0
-253 -247 -245 -167 -161 -158 0
-254 -248 -245 -170 -161 -158 0
-255 -249 -245 -173 -161 -158 0
-256 -250 -245 -176 -161 -158 0
-257 -251 -245 -179 -161 -158 0
-258 -247 -246 -167 -164 -158 0
-259 -248 -246 -170 -164 -158 0
-260 -249 -246 -173 -164 -158 0
-261 -250 -246 -176 -164 -158 0
-262 -251 -246 -179 -164 -158 0
-263 -248 -247 -170 -167 -158 0
-264 -249 -247 -173 -167 -158 0
-265 -250 -247 -176 -167 -158 0
-266 -251 -247 -179 -167 -158 0
-267 -249 -248 -173 -170 -158 0
-268 -250 -248 -176 -170 -158 0
-269 -251 -248 -179 -170 -158 0
-270 -250 -249 -176 -173 -158 0
-271 -251 -249 -179 -173 -158 0
-272 -251 -250 -179 -176 -158 0
-258 -253 -252 -167 -164 -161 0
-259 -254 -252 -170 -164 -161 0
-260 -255 -252 -173 -164 -161 0
-261 -256 -252 -176 -164 -161 0
-262 -257 -252 -179 -164 -161 0
-263 -254 -253 -170 -167 -161 0
-264 -255 -253 -173 -167 -161 0
-265 -256 -253 -176 -167 -161 0
-266 -257 -253 -179 -167 -161 0
-267 -255 -254 -173 -170 -161 0
-268 -256 -254 -176 -170 -161 0
-269 -257 -254 -179 -170 -161 0
-270 -256 -255 -176 -173 -161 0
-271 -257 -255 -179 -173 -161 0
-272 -257 -256 -179 -176 -161 0
-263 -259 -258 -170 -167 -164 0
-264 -260 -258 -173 -167 -164 0
-265 -261 -258 -176 -167 -164 0
-266 -262 -258 -179 -167 -164 0
-267 -260 -259 -173 -170 -164 0
-268 -261 -259 -176 -170 -164 0
-269 -262 -259 -179 -170 -164 0
-270 -261 -260 -176 -173 -164 0
-271 -262 -260 -179 -173 -164 0
-272 -262 -261 -179 -176 -164 0
-267 -264 -263 -173 -170 -167 0
-268 -265 -263 -176 -170 -167 0
-269 -266 -263 -179 -170 -167 0
-270 -265 -264 -176 -173 -167 0
-271 -266 -264 -179 -173 -167 0
-272 -266 -265 -179 -176 -167 0
-270 -268 -267 -176 -173 -170 0
-271 -269 -267 -179 -173 -170 0
-272 -269 -268 -179 -176 -170 0
-272 -271 -270 -179 -176 -173 0
-207 -196 -195 -184 -183 -182 0
-208 -197 -195 -185 -183 -182 0
-209 -198 -195 -186 -183 -182 0
-210 -199 -195 -187 -183 -182 0
-211 -200 -195 -188 -183 -182 0
-212 -201 -195 -189 -183 -182 0
-213 -202 -195 -190 -183 -182 0
-214 -203 -195 -191 -183 -182 0
-215 -204 -195 -192 -183 -182 0
-216 -205 -195 -193 -183 -182 0
-217 -206 -195 -194 -183 -182 0
-218 -197 -196 -185 -184 -182 0
-219 -198 -196 -186 -184 -182 0
-220 -199 -196 -187 -184 -182 0
-221 -200 -196 -188 -184 -182 0
-222 -201 -196 -189 -184 -182 0
-223 -202 -196 -190 -184 -182 0
-224 -203 -196 -191 -184 -182 0
-225 -204 -196 -192 -184 -182 0
-226 -205 -196 -193 -184 -182 0
-227 -206 -196 -194 -184 -182 0
-228 -198 -197 -186 -185 -182 0
-229 -199 -197 -187 -185 -182 0
-230 -200 -197 -188 -185 -182 0
-231 -201 -197 -189 -185 -182 0
-232 -202 -197 -190 -185 -182 0
-233 -203 -197 -191 -185 -182 0
-234 -204 -197 -192 -185 -182 0
-235 -205 -197 -193 -185 -182 0
-236 -206 -197 -194 -185 -182 0
-237 -199 -198 -187 -186 -182 0
-238 -200 -198 -188 -186 -182 0
-239 -201 -198 -189 -186 -182 0
-240 -202 -198 -190 -186 -182 0
-241 -203 -198 -191 -186 -182 0
-242 -204 -198 -192 -186 -182 0
-243 -205 -198 -193 -186 -182 0
-244 -206 -198 -194 -186 -182 0
-245 -200 -199 -188 -187 -182 0
-246 -201 -199 -189 -187 -182 0
-247 -202 -199 -190 -187 -182 0
-248 -203 -199 -191 -187 -182 0
-249 -204 -199 -192 -187 -182 0
-250 -205 -199 -193 -187 -182 0
-251 -206 -199 -194 -187 -182 0
-252 -201 -200 -189 -188 -182 0
-253 -202 -200 -190 -188 -182 0
-254 -203 -200 -191 -188 -182 0
-255 -204 -200 -192 -188 -182 0
-256 -205 -200 -193 -188 -182 0
-257 -206 -200 -194 -188 -182 0
-258 -202 -201 -190 -189 -182 0
-259 -203 -201 -191 -189 -182 0
-260 -204 -201 -192 -189 -182 0
-261 -205 -201 -193 -189 -182 0
-262 -206 -201 -194 -189 -182 0
-263 -203 -202 -191 -190 -182 0
-264 -204 -202 -192 -190 -182 0
-265 -205 -202 -193 -190 -182 0
-266 -206 -202 -194 -190 -182 0
-267 -204 -203 -192 -191 -182 0
-268 -205 -203 -193 -191 -182 0
-269 -206 -203 -194 -191 -182 0
-270 -205 -204 -193 -192 -182 0
-271 -206 -204 -194 -192 -182 0
-272 -206 -205 -194 -193 -182 0
-218 -208 -207 -185 -184 -183 0
-219 -209 -207 -186 -184 -183 0
-220 -210 -207 -187 -184 -183 0
-221 -211 -207 -188 -184 -183 0
-222 -212 -207 -189 -184 -183 0
-223 -213 -207 -190 -184 -183 0
-224 -214 -207 -191 -184 -183 0
-225 -215 -207 -192 -184 -183 0
-226 -216 -207 -193 -184 -183 0
-227 -217 -207 -194 -184 -183 0
-228 -209 -208 -186 -185 -183 0
-229 -210 -208 -187 -185 -183 0
-230 -211 -208 -188 -185 -183 0
-231 -212 -208 -189 -185 -183 0
-232 -213 -208 -190 -185 -183 0
-233 -214 -208 -191 -185 -183 0
-234 -215 -208 -192 -185 -183 0
-235 -216 -208 -193 -185 -183 0
-236 -217 -208 -194 -185 -183 0
-237 -210 -209 -187 -186 -183 0
-238 -211 -209 -188 -186 -183 0
-239 -212 -209 -189 -186 -183 0
-240 -213 -209 -190 -186 -183 0
-241 -214 -209 -191 -186 -183 0
-242 -215 -209 -192 -186 -183 0
-243 -216 -209 -193 -186 -183 0
-244 -217 -209 -194 -186 -183 0
-245 -211 -210 -188 -187 -183 0
-246 -212 -210 -189 -187 -183 0
-247 -213 -210 -190 -187 -183 0
-248 -214 -210 -191 -187 -183 0
-249 -215 -210 -192 -187 -183 0
-250 -216 -210 -193 -187 -183 0
-251 -217 -210 -194 -187 -183 0
-252 -212 -211 -189 -188 -183 0
-253 -213 -211 -190 -188 -183 0
-254 -214 -211 -191 -188 -183 0
-255 -215 -211 -192 -188 -183 0
-256 -216 -211 -193 -188 -183 0
-257 -217 -211 -194 -188 -183 0
-258 -213 -212 -190 -189 -183 0
-259 -214 -212 -191 -189 -183 0
-260 -215 -212 -192 -189 -183 0
-261 -216 -212 -193 -189 -183 0
-262 -217 -212 -194 -189 -183 0
-263 -214 -213 -191 -190 -183 0
-264 -215 -213 -192 -190 -183 0
-265 -216 -213 -193 -190 -183 0
-266 -217 -213 -194 -190 -183 0
-267 -215 -214 -192 -191 -183 0
-268 -216 -214 -193 -191 -183 0
-269 -217 -214 -194 -191 -183 0
-270 -216 -215 -193 -192 -183 0
-271 -217 -215 -194 -192 -183 0
-272 -217 -216 -194 -193 -183 0
-228 -219 -218 -186 -185 -184 0
-229 -220 -218 -187 -185 -184 0
-230 -221 -218 -188 -185 -184 0
-231 -222 -218 -189 -185 -184 0
-232 -223 -218 -190 -185 -184 0
-233 -224 -218 -191 -185 -184 0
-234 -225 -218 -192 -185 -184 0
-235 -226 -218 -193 -185 -184 0
-236 -227 -218 -194 -185 -184 0
-237 -220 -219 -187 -186 -184 0
-238 -221 -219 -188 -186 -184 0
-239 -222 -219 -189 -186 -184 0
-240 -223 -219 -190 -186 -184 0
-241 -224 -219 -191 -186 -184 0
-242 -225 -219 -192 -186 -184 0
-243 -226 -219 -193 -186 -184 0
-244 -227 -219 -194 -186 -184 0
-245 -221 -220 -188 -187 -184 0
-246 -222 -220 -189 -187 -184 0
-247 -223 -220 -190 -187 -184 0
-248 -224 -220 -191 -187 -184 0
-249 -225 -220 -192 -187 -184 0
-250 -226 -220 -193 -187 -184 0
-251 -227 -220 -194 -187 -184 0
-252 -222 -221 -189 -188 -184 0
-253 -223 -221 -190 -188 -184 0
-254 -224 -221 -191 -188 -184 0
-255 -225 -221 -192 -188 -184 0
-256 -226 -221 -193 -188 -184 0
-257 -227 -221 -194 -188 -184 0
-258 -223 -222 -190 -189 -184 0
-259 -224 -222 -191 -189 -184 0
-260 -225 -222 -192 -189 -184 0
-261 -226 -222 -193 -189 -184 0
-262 -227 -222 -194 -189 -184 0
-263 -224 -223 -191 -190 -184 0
-264 -225 -223 -192 -190 -184 0
-265 -226 -223 -193 -190 -184 0
-266 -227 -223 -194 -190 -184 0
-267 -225 -224 -192 -191 -184 0
-268 -226 -224 -193 -191 -184 0
-269 -227 -224 -194 -191 -184 0
-270 -226 -225 -193 -192 -184 0
-271 -227 -225 -194 -192 -184 0
-272 -227 -226 -194 -193 -184 0
-237 -229 -228 -187 -186 -185 0
-238 -230 -228 -188 -186 -185 0
-239 -231 -228 -189 -186 -185 0
-240 -232 -228 -190 -186 -185 0
-241 -233 -228 -191 -186 -185 0
-242 -234 -228 -192 -186 -185 0
-243 -235 -228 -193 -186 -185 0
-244 -236 -228 -194 -186 -185 0
-245 -230 -229 -188 -187 -185 0
-246 -231 -229 -189 -187 -185 0
-247 -232 -229 -190 -187 -185 0
-248 -233 -229 -191 -187 -185 0
-249 -234 -229 -192 -187 -185 0
-250 -235 -229 -193 -187 -185 0
-251 -236 -229 -194 -187 -185 0
-252 -231 -230 -189 -188 -185 0
-253 -232 -230 -190 -188 -185 0
-254 -233 -230 -191 -188 -185 0
-255 -234 -230 -192 -188 -185 0
-256 -235 -230 -193 -188 -185 0
-257 -236 -230 -194 -188 -185 0
-258 -232 -231 -190 -189 -185 0
-259 -233 -231 -191 -189 -185 0
-260 -234 -231 -192 -189 -185 0
-261 -235 -231 -193 -189 -185 0
-262 -236 -231 -194 -189 -185 0
-263 -233 -232 -191 -190 -185 0
-264 -234 -232 -192 -190 -185 0
-265 -235 -232 -193 -190 -185 0
-266 -236 -232 -194 -190 -185 0
-267 -234 -233 -192 -191 -185 0
-268 -235 -233 -193 -191 -185 0
-269 -236 -233 -194 -191 -185 0
-270 -235 -234 -193 -192 -185 0
-271 -236 -234 -194 -192 -185 0
-272 -236 -235 -194 -193 -185 0
-245 -238 -237 -188 -187 -186 0
-246 -239 -237 -189 -187 -186 0
-247 -240 -237 -190 -187 -186 0
-248 -241 -237 -191 -187 -186 0
-249 -242 -237 -192 -187 -186 0
-250 -243 -237 -193 -187 -186 0
-251 -244 -237 -194 -187 -186 0
-252 -239 -238 -189 -188 -186 0
-253 -240 -238 -190 -188 -186 0
-254 -241 -238 -191 -188 -186 0
-255 -242 -238 -192 -188 -186 0
-256 -243 -238 -193 -188 -186 0
-257 -244 -238 -194 -188 -186 0
-258 -240 -239 -190 -189 -186 0
-259 -241 -239 -191 -189 -186 0
-260 -242 -239 -192 -189 -186 0
-261 -243 -239 -193 -189 -186 0
-262 -244 -239 -194 -189 -186 0
-263 -241 -240 -191 -190 -186 0
-264 -242 -240 -192 -190 -186 0
-265 -243 -240 -193 -190 -186 0
-266 -244 -240 -194 -190 -186 0
-267 -242 -241 -192 -191 -186 0
-268 -243 -241 -193 -191 -186 0
-269 -244 -241 -194 -191 -186 0
-270 -243 -242 -193 -192 -186 0
-271 -244 -242 -194 -192 -186 0
-272 -244 -243 -194 -193 -186 0
-252 -246 -245 -189 -188 -187 0
-253 -247 -245 -190 -188 -187 0
-254 -248 -245 -191 -188 -187 0
-255 -249 -245 -192 -188 -187 0
-256 -250 -245 -193 -188 -187 0
-257 -251 -245 -194 -188 -187 0
-258 -247 -246 -190 -189 -187 0
-259 -248 -246 -191 -189 -187 0
-260 -249 -246 -192 -189 -187 0
-261 -250 -246 -193 -189 -187 0
-262 -251 -246 -194 -189 -187 0
-263 -248 -247 -191 -190 -187 0
-264 -249 -247 -192 -190 -187 0
-265 -250 -247 -193 -190 -187 0
-266 -251 -247 -194 -190 -187 0
-267 -249 -248 -192 -191 -187 0
-268 -250 -248 -193 -191 -187 0
-269 -251 -248 -194 -191 -187 0
-270 -250 -249 -193 -192 -187 0
-271 -251 -249 -194 -192 -187 0
-272 -251 -250 -194 -193 -187 0
-258 -253 -252 -190 -189 -188 0
-259 -254 -252 -191 -189 -188 0
-260 -255 -252 -192 -189 -188 0
-261 -256 -252 -193 -189 -188 0
-262 -257 -252 -194 -189 -188 0
-263 -254 -253 -191 -190 -188 0
-264 -255 -253 -192 -190 -188 0
-265 -256 -253 -193 -190 -188 0
-266 -257 -253 -194 -190 -188 0
-267 -255 -254 -192 -191 -188 0
-268 -256 -254 -193 -191 -188 0
-269 -257 -254 -194 -191 -188 0
-270 -256 -255 -193 -192 -188 0
-271 -257 -255 -194 -192 -188 0
-272 -257 -256 -194 -193 -188 0
-263 -259 -258 -191 -190 -189 0
-264 -260 -258 -192 -190 -189 0
-265 -261 -258 -193 -190 -189 0
-266 -262 -258 -194 -190 -189 0
-267 -260 -259 -192 -191 -189 0
-268 -261 -259 -193 -191 -189 0
-269 -262 -259 -194 -191 -189 0
-270 -261 -260 -193 -192 -189 0
-271 -262 -260 -194 -192 -189 0
-272 -262 -261 -194 -193 -189 0
-267 -264 -263 -192 -191 -190 0
-268 -265 -263 -193 -191 -190 0
-269 -266 -263 -194 -191 -190 0
-270 -265 -264 -193 -192 -190 0
-271 -266 -264 -194 -192 -190 0
-272 -266 -265 -194 -193 -190 0
-270 -268 -267 -193 -192 -191 0
-271 -269 -267 -194 -192 -191 0
-272 -269 -268 -194 -193 -191 0
-272 -271 -270 -194 -193 -192 0
-218 -208 -207 -197 -196 -195 0
-219 -209 -207 -198 -196 -195 0
-220 -210 -207 -199 -196 -195 0
-221 -211 -207 -200 -196 -195 0
-222 -212 -207 -201 -196 -195 0
-223 -213 -207 -202 -196 -195 0
-224 -214 -207 -203 -196 -195 0
-225 -215 -207 -204 -196 -195 0
-226 -216 -207 -205 -196 -195 0
-227 -217 -207 -206 -196 -195 0
-228 -209 -208 -198 -197 -195 0
-229 -210 -208 -199 -197 -195 0
-230 -211 -208 -200 -197 -195 0
-231 -212 -208 -201 -197 -195 0
-232 -213 -208 -202 -197 -195 0
-233 -214 -208 -203 -197 -195 0
-234 -215 -208 -204 -197 -195 0
-235 -216 -208 -205 -197 -195 0
-236 -217 -208 -206 -197 -195 0
-237 -210 -209 -199 -198 -195 0
-238 -211 -209 -200 -198 -195 0
-239 -212 -209 -201 -198 -195 0
-240 -213 -209 -202 -198 -195 0
-241 -214 -209 -203 -198 -195 0
-242 -215 -209 -204 -198 -195 0
-243 -216 -209 -205 -198 -195 0
-244 -217 -209 -206 -198 -195 0
-245 -211 -210 -200 -199 -195 0
-246 -212 -210 -201 -199 -195 0
-247 -213 -210 -202 -199 -195 0
-248 -214 -210 -203 -199 -195 0
-249 -215 -210 -204 -199 -195 0
-250 -216 -210 -205 -199 -195 0
-251 -217 -210 -206 -199 -195 0
-252 -212 -211 -201 -200 -195 0
-253 -213 -211 -202 -200 -195 0
-254 -214 -211 -203 -200 -195 0
-255 -215 -211 -204 -200 -195 0
-256 -216 -211 -205 -200 -195 0
-257 -217 -211 -206 -200 -195 0
-258 -213 -212 -202 -201 -195 0
-259 -214 -212 -203 -201 -195 0
-260 -215 -212 -204 -201 -195 0
-261 -216 -212 -205 -201 -195 0
-262 -217 -212 -206 -201 -195 0
-263 -214 -213 -203 -202 -195 0
-264 -215 -213 -204 -202 -195 0
-265 -216 -213 -205 -202 -195 0
-266 -217 -213 -206 -202 -195 0
-267 -215 -214 -204 -203 -195 0
-268 -216 -214 -205 -203 -195 0
-269 -217 -214 -206 -203 -195 0
-270 -216 -215 -205 -204 -195 0
-271 -217 -215 -206 -204 -195 0
-272 -217 -216 -206 -205 -195 0
-228 -219 -218 -198 -197 -196 0
-229 -220 -218 -199 -197 -196 0
-230 -221 -218 -200 -197 -196 0
-231 -222 -218 -201 -197 -196 0
-232 -223 -218 -202 -197 -196 0
-233 -224 -218 -203 -197 -196 0
-234 -225 -218 -204 -197 -196 0
-235 -226 -218 -205 -197 -196 0
-236 -227 -218 -206 -197 -196 0
-237 -220 -219 -199 -198 -196 0
-238 -221 -219 -200 -198 -196 0
-239 -222 -219 -201 -198 -196 0
-240 -223 -219 -202 -198 -196 0
-241 -224 -219 -203 -198 -196 0
-242 -225 -219 -204 -198 -196 0
-243 -226 -219 -205 -198 -196 0
-244 -227 -219 -206 -198 -196 0
-245 -221 -220 -200 -199 -196 0
-246 -222 -220 -201 -199 -196 0
-247 -223 -220 -202 -199 -196 0
-248 -224 -220 -203 -199 -196 0
-249 -225 -220 -204 -199 -196 0
-250 -226 -220 -205 -199 -196 0
-251 -227 -220 -206 -199 -196 0
-252 -222 -221 -201 -200 -196 0
-253 -223 -221 -202 -200 -196 0
-254 -224 -221 -203 -200 -196 0
-255 -225 -221 -204 -200 -196 0
-256 -226 -221 -205 -200 -196 0
-257 -227 -221 -206 -200 -196 0
-258 -223 -222 -202 -201 -196 0
-259 -224 -222 -203 -201 -196 0
-260 -225 -222 -204 -201 -196 0
-261 -226 -222 -205 -201 -196 0
-262 -227 -222 -206 -201 -196 0
-263 -224 -223 -203 -202 -196 0
-264 -225 -223 -204 -202 -196 0
-265 -226 -223 -205 -202 -196 0
-266 -227 -223 -206 -202 -196 0
-267 -225 -224 -204 -203 -196 0
-268 -226 -224 -205 -203 -196 0
-269 -227 -224 -206 -203 -196 0
-270 -226 -225 -205 -204 -196 0
-271 -227 -225 -206 -204 -196 0
-272 -227 -226 -206 -205 -196 0
-237 -229 -228 -199 -198 -197 0
-238 -230 -228 -200 -198 -197 0
-239 -231 -228 -201 -198 -197 0
-240 -232 -228 -202 -198 -197 0
-241 -233 -228 -203 -198 -197 0
-242 -234 -228 -204 -198 -197 0
-243 -235 -228 -205 -198 -197 0
-244 -236 -228 -206 -198 -197 0
-245 -230 -229 -200 -199 -197 0
-246 -231 -229 -201 -199 -197 0
-247 -232 -229 -202 -199 -197 0
-248 -233 -229 -203 -199 -197 0
-249 -234 -229 -204 -199 -197 0
-250 -235 -229 -205 -199 -197 0
-251 -236 -229 -206 -199 -197 0
-252 -231 -230 -201 -200 -197 0
-253 -232 -230 -202 -200 -197 0
-254 -233 -230 -203 -200 -197 0
-255 -234 -230 -204 -200 -197 0
-256 -235 -230 -205 -200 -197 0
-257 -236 -230 -206 -200 -197 0
-258 -232 -231 -202 -201 -197 0
-259 -233 -231 -203 -201 -197 0
-260 -234 -231 -204 -201 -197 0
-261 -235 -231 -205 -201 -197 0
-262 -236 -231 -206 -201 -197 0
-263 -233 -232 -203 -202 -197 0
-264 -234 -232 -204 -202 -197 0
-265 -235 -232 -205 -202 -197 0
-266 -236 -232 -206 -202 -197 0
-267 -234 -233 -204 -203 -197 0
-268 -235 -233 -205 -203 -197 0
-269 -236 -233 -206 -203 -197 0
-270 -235 -234 -205 -204 -197 0
-271 -236 -234 -206 -204 -197 0
-272 -236 -235 -206 -205 -197 0
-245 -238 -237 -200 -199 -198 0
-246 -239 -237 -201 -199 -198 0
-247 -240 -237 -202 -199 -198 0
-248 -241 -237 -203 -199 -198 0
-249 -242 -237 -204 -199 -198 0
-250 -243 -237 -205 -199 -198 0
-251 -244 -237 -206 -199 -198 0
-252 -239 -238 -201 -200 -198 0
-253 -240 -238 -202 -200 -198 0
-254 -241 -238 -203 -200 -198 0
-255 -242 -238 -204 -200 -198 0
-256 -243 -238 -205 -200 -198 0
-257 -244 -238 -206 -200 -198 0
-258 -240 -239 -202 -201 -198 0
-259 -241 -239 -203 -201 -198 0
-260 -242 -239 -204 -201 -198 0
-261 -243 -239 -205 -201 -198 0
-262 -244 -239 -206 -201 -198 0
-263 -241 -240 -203 -202 -198 0
-264 -242 -240 -204 -202 -198 0
-265 -243 -240 -205 -202 -198 0
-266 -244 -240 -206 -202 -198 0
-267 -242 -241 -204 -203 -198 0
-268 -243 -241 -205 -203 -198 0
-269 -244 -241 -206 -203 -198 0
-270 -243 -242 -205 -204 -198 0
-271 -244 -242 -206 -204 -198 0
-272 -244 -243 -206 -205 -198 0
-252 -246 -245 -201 -200 -199 0
-253 -247 -245 -202 -200 -199 0
-254 -248 -245 -203 -200 -199 0
-255 -249 -245 -204 -200 -199 0
-256 -250 -245 -205 -200 -199 0
-257 -251 -245 -206 -200 -199 0
-258 -247 -246 -202 -201 -199 0
-259 -248 -246 -203 -201 -199 0
-260 -249 -246 -204 -201 -199 0
-261 -250 -246 -205 -201 -199 0
-262 -251 -246 -206 -201 -199 0
-263 -248 -247 -203 -202 -199 0
-264 -249 -247 -204 -202 -199 0
-265 -250 -247 -205 -202 -199 0
-266 -251 -247 -206 -202 -199 0
-267 -249 -248 -204 -203 -199 0
-268 -250 -248 -205 -203 -199 0
-269 -251 -248 -206 -203 -199 0
-270 -250 -249 -205 -204 -199 0
-271 -251 -249 -206 -204 -199 0
-272 -251 -250 -206 -205 -199 0
-258 -253 -252 -202 -201 -200 0
-259 -254 -252 -203 -201 -200 0
-260 -255 -252 -204 -201 -200 0
-261 -256 -252 -205 -201 -200 0
-262 -257 -252 -206 -201 -200 0
-263 -254 -253 -203 -202 -200 0
-264 -255 -253 -204 -202 -200 0
-265 -256 -253 -205 -202 -200 0
-266 -257 -253 -206 -202 -200 0
-267 -255 -254 -204 -203 -200 0
-268 -256 -254 -205 -203 -200 0
-269 -257 -254 -206 -203 -200 0
-270 -256 -255 -205 -204 -200 0
-271 -257 -255 -206 -204 -200 0
-272 -257 -256 -206 -205 -200 0
-263 -259 -258 -203 -202 -201 0
-264 -260 -258 -204 -202 -201 0
-265 -261 -258 -205 -202 -201 0
-266 -262 -258 -206 -202 -201 0
-267 -260 -259 -204 -203 -201 0
-268 -261 -259 -205 -203 -201 0
-269 -262 -259 -206 -203 -201 0
-270 -261 -260 -205 -204 -201 0
-271 -262 -260 -206 -204 -201 0
-272 -262 -261 -206 -205 -201 0
-267 -264 -263 -204 -203 -202 0
-268 -265 -263 -205 -203 -202 0
-269 -266 -263 -206 -203 -202 0
-270 -265 -264 -205 -204 -202 0
-271 -266 -264 -206 -204 -202 0
-272 -266 -265 -206 -205 -202 0
-270 -268 -267 -205 -204 -203 0
-271 -269 -267 -206 -204 -203 0
-272 -269 -268 -206 -205 -203 0
-272 -271 -270 -206 -205 -204 0
-228 -219 -218 -209 -208 -207 0
-229 -220 -218 -210 -208 -207 0
-230 -221 -218 -211 -208 -207 0
-231 -222 -218 -212 -208 -207 0
-232 -223 -218 -213 -208 -207 0
-233 -224 -218 -214 -208 -207 0
-234 -225 -218 -215 -208 -207 0
-235 -226 -218 -216 -208 -207 0
-236 -227 -218 -217 -208 -207 0
-237 -220 -219 -210 -209 -207 0
-238 -221 -219 -211 -209 -207 0
-239 -222 -219 -212 -209 -207 0
-240 -223 -219 -213 -209 -207 0
-241 -224 -219 -214 -209 -207 0
-242 -225 -219 -215 -209 -207 0
-243 -226 -219 -216 -209 -207 0
-244 -227 -219 -217 -209 -207 0
-245 -221 -220 -211 -210 -207 0
-246 -222 -220 -212 -210 -207 0
-247 -223 -220 -213 -210 -207 0
-248 -224 -220 -214 -210 -207 0
-249 -225 -220 -215 -210 -207 0
-250 -226 -220 -216 -210 -207 0
-251 -227 -220 -217 -210 -207 0
-252 -222 -221 -212 -211 -207 0
-253 -223 -221 -213 -211 -207 0
-254 -224 -221 -214 -211 -207 0
-255 -225 -221 -215 -211 -207 0
-256 -226 -221 -216 -211 -207 0
-257 -227 -221 -217 -211 -207 0
-258 -223 -222 -213 -212 -207 0
-259 -224 -222 -214 -212 -207 0
-260 -225 -222 -215 -212 -207 0
-261 -226 -222 -216 -212 -207 0
-262 -227 -222 -217 -212 -207 0
-263 -224 -223 -214 -213 -207 0
-264 -225 -223 -215 -213 -207 0
-265 -226 -223 -216 -213 -207 0
-266 -227 -223 -217 -213 -207 0
-267 -225 -224 -215 -214 -207 0
-268 -226 -224 -216 -214 -207 0
-269 -227 -224 -217 -214 -207 0
-270 -226 -225 -216 -215 -207 0
-271 -227 -225 -217 -215 -207 0
-272 -227 -226 -217 -216 -207 0
-237 -229 -228 -210 -209 -208 0
-238 -230 -228 -211 -209 -208 0
-239 -231 -228 -212 -209 -208 0
-240 -232 -228 -213 -209 -208 0
-241 -233 -228 -214 -209 -208 0
-242 -234 -228 -215 -209 -208 0
-243 -235 -228 -216 -209 -208 0
-244 -236 -228 -217 -209 -208 0
-245 -230 -229 -211 -210 -208 0
-246 -231 -229 -212 -210 -208 0
-247 -232 -229 -213 -210 -208 0
-248 -233 -229 -214 -210 -208 0
-249 -234 -229 -215 -210 -208 0
-250 -235 -229 -216 -210 -208 0
-251 -236 -229 -217 -210 -208 0
-252 -231 -230 -212 -211 -208 0
-253 -232 -230 -213 -211 -208 0
-254 -233 -230 -214 -211 -208 0
-255 -234 -230 -215 -211 -208 0
-256 -235 -230 -216 -211 -208 0
-257 -236 -230 -217 -211 -208 0
-258 -232 -231 -213 -212 -208 0
-259 -233 -231 -214 -212 -208 0
-260 -234 -231 -215 -212 -208 0
-261 -235 -231 -216 -212 -208 0
-262 -236 -231 -217 -212 -208 0
-263 -233 -232 -214 -213 -208 0
-264 -234 -232 -215 -213 -208 0
-265 -235 -232 -216 -213 -208 0
-266 -236 -232 -217 -213 -208 0
-267 -234 -233 -215 -214 -208 0
-268 -235 -233 -216 -214 -208 0
-269 -236 -233 -217 -214 -208 0
-270 -235 -234 -216 -215 -208 0
-271 -236 -234 -217 -215 -208 0
-272 -236 -235 -217 -216 -208 0
-245 -238 -237 -211 -210 -209 0
-246 -239 -237 -212 -210 -209 0
-247 -240 -237 -213 -210 -209 0
-248 -241 -237 -214 -210 -209 0
-249 -242 -237 -215 -210 -209 0
-250 -243 -237 -216 -210 -209 0
-251 -244 -237 -217 -210 -209 0
-252 -239 -238 -212 -211 -209 0
-253 -240 -238 -213 -211 -209 0
-254 -241 -238 -214 -211 -209 0
-255 -242 -238 -215 -211 -209 0
-256 -243 -238 -216 -211 -209 0
-257 -244 -238 -217 -211 -209 0
-258 -240 -239 -213 -212 -209 0
-259 -241 -239 -214 -212 -209 0
-260 -242 -239 -215 -212 -209 0
-261 -243 -239 -216 -212 -209 0
-262 -244 -239 -217 -212 -209 0
-263 -241 -240 -214 -213 -209 0
-264 -242 -240 -215 -213 -209 0
-265 -243 -240 -216 -213 -209 0
-266 -244 -240 -217 -213 -209 0
-267 -242 -241 -215 -214 -209 0
-268 -243 -241 -216 -214 -209 0
-269 -244 -241 -217 -214 -209 0
-270 -243 -242 -216 -215 -209 0
-271 -244 -242 -217 -215 -209 0
-272 -244 -243 -217 -216 -209 0
-252 -246 -245 -212 -211 -210 0
-253 -247 -245 -213 -211 -210 0
-254 -248 -245 -214 -211 -210 0
-255 -249 -245 -215 -211 -210 0
-256 -250 -245 -216 -211 -210 0
-257 -251 -245 -217 -211 -210 0
-258 -247 -246 -213 -212 -210 0
-259 -248 -246 -214 -212 -210 0
-260 -249 -246 -215 -212 -210 0
-261 -250 -246 -216 -212 -210 0
-262 -251 -246 -217 -212 -210 0
-263 -248 -247 -214 -213 -210 0
-264 -249 -247 -215 -213 -210 0
-265 -250 -247 -216 -213 -210 0
-266 -251 -247 -217 -213 -210 0
-267 -249 -248 -215 -214 -210 0
-268 -250 -248 -216 -214 -210 0
-269 -251 -248 -217 -214 -210 0
-270 -250 -249 -216 -215 -210 0
-271 -251 -249 -217 -215 -210 0
-272 -251 -250 -217 -216 -210 0
-258 -253 -252 -213 -212 -211 0
-259 -254 -252 -214 -212 -211 0
-260 -255 -252 -215 -212 -211 0
-261 -256 -252 -216 -212 -211 0
-262 -257 -252 -217 -212 -211 0
-263 -254 -253 -214 -213 -211 0
-264 -255 -253 -215 -213 -211 0
-265 -256 -253 -216 -213 -211 0
-266 -257 -253 -217 -213 -211 0
-267 -255 -254 -215 -214 -211 0
-268 -256 -254 -216 -214 -211 0
-269 -257 -254 -217 -214 -211 0
-270 -256 -255 -216 -215 -211 0
-271 -257 -255 -217 -215 -211 0
-272 -257 -256 -217 -216 -211 0
-263 -259 -258 -214 -213 -212 0
-264 -260 -258 -215 -213 -212 0
-265 -261 -258 -216 -213 -212 0
-266 -262 -258 -217 -213 -212 0
-267 -260 -259 -215 -214 -212 0
-268 -261 -259 -216 -214 -212 0
-269 -262 -259 -217 -214 -212 0
-270 -261 -260 -216 -215 -212 0
-271 -262 -260 -217 -215 -212 0
-272 -262 -261 -217 -216 -212 0
-267 -264 -263 -215 -214 -213 0
-268 -265 -263 -216 -214 -213 0
-269 -266 -263 -217 -214 -213 0
-270 -265 -264 -216 -215 -213 0
-271 -266 -264 -217 -215 -213 0
-272 -266 -265 -217 -216 -213 0
-270 -268 -267 -216 -215 -214 0
-271 -269 -267 -217 -215 -214 0
-272 -269 -268 -217 -216 -214 0
-272 -271 -270 -217 -216 -215 0
-237 -229 -228 -220 -219 -218 0
-238 -230 -228 -221 -219 -218 0
-239 -231 -228 -222 -219 -218 0
-240 -232 -228 -223 -219 -218 0
-241 -233 -228 -224 -219 -218 0
-242 -234 -228 -225 -219 -218 0
-243 -235 -228 -226 -219 -218 0
-244 -236 -228 -227 -219 -218 0
-245 -230 -229 -221 -220 -218 0
-246 -231 -229 -222 -220 -218 0
-247 -232 -229 -223 -220 -218 0
-248 -233 -229 -224 -220 -218 0
-249 -234 -229 -225 -220 -218 0
-250 -235 -229 -226 -220 -218 0
-251 -236 -229 -227 -220 -218 0
-252 -231 -230 -222 -221 -218 0
-253 -232 -230 -223 -221 -218 0
-254 -233 -230 -224 -221 -218 0
-255 -234 -230 -225 -221 -218 0
-256 -235 -230 -226 -221 -218 0
-257 -236 -230 -227 -221 -218 0
-258 -232 -231 -223 -222 -218 0
-259 -233 -231 -224 -222 -218 0
-260 -234 -231 -225 -222 -218 0
-261 -235 -231 -226 -222 -218 0
-262 -236 -231 -227 -222 -218 0
-263 -233 -232 -224 -223 -218 0
-264 -234 -232 -225 -223 -218 0
-265 -235 -232 -226 -223 -218 0
-266 -236 -232 -227 -223 -218 0
-267 -234 -233 -225 -224 -218 0
-268 -235 -233 -226 -224 -218 0
-269 -236 -233 -227 -224 -218 0
-270 -235 -234 -226 -225 -218 0
-271 -236 -234 -227 -225 -218 0
-272 -236 -235 -227 -226 -218 0
-245 -238 -237 -221 -220 -219 0
-246 -239 -237 -222 -220 -219 0
-247 -240 -237 -223 -220 -219 0
-248 -241 -237 -224 -220 -219 0
-249 -242 -237 -225 -220 -219 0
-250 -243 -237 -226 -220 -219 0
-251 -244 -237 -227 -220 -219 0
-252 -239 -238 -222 -221 -219 0
-253 -240 -238 -223 -221 -219 0
-254 -241 -238 -224 -221 -219 0
-255 -242 -238 -225 -221 -219 0
-256 -243 -238 -226 -221 -219 0
-257 -244 -238 -227 -221 -219 0
-258 -240 -239 -223 -222 -219 0
-259 -241 -239 -224 -222 -219 0
-260 -242 -239 -225 -222 -219 0
-261 -243 -239 -226 -222 -219 0
-262 -244 -239 -227 -222 -219 0
-263 -241 -240 -224 -223 -219 0
-264 -242 -240 -225 -223 -219 0
-265 -243 -240 -226 -223 -219 0
-266 -244 -240 -227 -223 -219 0
-267 -242 -241 -225 -224 -219 0
-268 -243 -241 -226 -224 -219 0
-269 -244 -241 -227 -224 -219 0
-270 -243 -242 -226 -225 -219 0
-271 -244 -242 -227 -225 -219 0
-272 -244 -243 -227 -226 -219 0
-252 -246 -245 -222 -221 -220 0
-253 -247 -245 -223 -221 -220 0
-254 -248 -245 -224 -221 -220 0
-255 -249 -245 -225 -221 -220 0
-256 -250 -245 -226 -221 -220 0
-257 -251 -245 -227 -221 -220 0
-258 -247 -246 -223 -222 -220 0
-259 -248 -246 -224 -222 -220 0
-260 -249 -246 -225 -222 -220 0
-261 -250 -246 -226 -222 -220 0
-262 -251 -246 -227 -222 -220 0
-263 -248 -247 -224 -223 -220 0
-264 -249 -247 -225 -223 -220 0
-265 -250 -247 -226 -223 -220 0
-266 -251 -247 -227 -223 -220 0
-267 -249 -248 -225 -224 -220 0
-268 -250 -248 -226 -224 -220 0
-269 -251 -248 -227 -224 -220 0
-270 -250 -249 -226 -225 -220 0
-271 -251 -249 -227 -225 -220 0
-272 -251 -250 -227 -226 -220 0
-258 -253 -252 -223 -222 -221 0
-259 -254 -252 -224 -222 -221 0
-260 -255 -252 -225 -222 -221 0
-261 -256 -252 -226 -222 -221 0
-262 -257 -252 -227 -222 -221 0
-263 -254 -253 -224 -223 -221 0
-264 -255 -253 -225 -223 -221 0
-265 -256 -253 -226 -223 -221 0
-266 -257 -253 -227 -223 -221 0
-267 -255 -254 -225 -224 -221 0
-268 -256 -254 -226 -224 -221 0
-269 -257 -254 -227 -224 -221 0
-270 -256 -255 -226 -225 -221 0
-271 -257 -255 -227 -225 -221 0
-272 -257 -256 -227 -226 -221 0
-263 -259 -258 -224 -223 -222 0
-264 -260 -258 -225 -223 -222 0
-265 -261 -258 -226 -223 -222 0
-266 -262 -258 -227 -223 -222 0
-267 -260 -259 -225 -224 -222 0
-268 -261 -259 -226 -224 -222 0
-269 -262 -259 -227 -224 -222 0
-270 -261 -260 -226 -225 -222 0
-271 -262 -260 -227 -225 -222 0
-272 -262 -261 -227 -226 -222 0
-267 -264 -263 -225 -224 -223 0
-268 -265 -263 -226 -224 -223 0
-269 -266 -263 -227 -224 -223 0
-270 -265 -264 -226 -225 -223 0
-271 -266 -264 -227 -225 -223 0
-272 -266 -265 -227 -226 -223 0
-270 -268 -267 -226 -225 -224 0
-271 -269 -267 -227 -225 -224 0
-272 -269 -268 -227 -226 -224 0
-272 -271 -270 -227 -226 -225 0
-245 -238 -237 -230 -229 -228 0
-246 -239 -237 -231 -229 -228 0
-247 -240 -237 -232 -229 -228 0
-248 -241 -237 -233 -229 -228 0
-249 -242 -237 -234 -229 -228 0
-250 -243 -237 -235 -229 -228 0
-251 -244 -237 -236 -229 -228 0
-252 -239 -238 -231 -230 -228 0
-253 -240 -238 -232 -230 -228 0
-254 -241 -238 -233 -230 -228 0
-255 -242 -238 -234 -230 -228 0
-256 -243 -238 -235 -230 -228 0
-257 -244 -238 -236 -230 -228 0
-258 -240 -239 -232 -231 -228 0
-259 -241 -239 -233 -231 -228 0
-260 -242 -239 -234 -231 -228 0
-261 -243 -239 -235 -231 -228 0
-262 -244 -239 -236 -231 -228 0
-263 -241 -240 -233 -232 -228 0
-264 -242 -240 -234 -232 -228 0
-265 -243 -240 -235 -232 -228 0
-266 -244 -240 -236 -232 -228 0
-267 -242 -241 -234 -233 -228 0
-268 -243 -241 -235 -233 -228 0
-269 -244 -241 -236 -233 -228 0
-270 -243 -242 -235 -234 -228 0
-271 -244 -242 -236 -234 -228 0
-272 -244 -243 -236 -235 -228 0
-252 -246 -245 -231 -230 -229 0
-253 -247 -245 -232 -230 -229 0
-254 -248 -245 -233 -230 -229 0
-255 -249 -245 -234 -230 -229 0
-256 -250 -245 -235 -230 -229 0
-257 -251 -245 -236 -230 -229 0
-258 -247 -246 -232 -231 -229 0
-259 -248 -246 -233 -231 -229 0
-260 -249 -246 -234 -231 -229 0
-261 -250 -246 -235 -231 -229 0
-262 -251 -246 -236 -231 -229 0
-263 -248 -247 -233 -232 -229 0
-264 -249 -247 -234 -232 -229 0
-265 -250 -247 -235 -232 -229 0
-266 -251 -247 -236 -232 -229 0
-267 -249 -248 -234 -233 -229 0
-268 -250 -248 -235 -233 -229 0
-269 -251 -248 -236 -233 -229 0
-270 -250 -249 -235 -234 -229 0
-271 -251 -249 -236 -234 -229 0
-272 -251 -250 -236 -235 -229 0
-258 -253 -252 -232 -231 -230 0
-259 -254 -252 -233 -231 -230 0
-260 -255 -252 -234 -231 -230 0
-261 -256 -252 -235 -231 -230 0
-262 -257 -252 -236 -231 -230 0
-263 -254 -253 -233 -232 -230 0
-264 -255 -253 -234 -232 -230 0
-265 -256 -253 -235 -232 -230 0
-266 -257 -253 -236 -232 -230 0
-267 -255 -254 -234 -233 -230 0
-268 -256 -254 -235 -233 -230 0
-269 -257 -254 -236 -233 -230 0
-270 -256 -255 -235 -234 -230 0
-271 -257 -255 -236 -234 -230 0
-272 -257 -256 -236 -235 -230 0
-263 -259 -258 -233 -232 -231 0
-264 -260 -258 -234 -232 -231 0
-265 -261 -258 -235 -232 -231 0
-266 -262 -258 -236 -232 -231 0
-267 -260 -259 -234 -233 -231 0
-268 -261 -259 -235 -233 -231 0
-269 -262 -259 -236 -233 -231 0
-270 -261 -260 -235 -234 -231 0
-271 -262 -260 -236 -234 -231 0
-272 -262 -261 -236 -235 -231 0
-267 -264 -263 -234 -233 -232 0
-268 -265 -263 -235 -233 -232 0
-269 -266 -263 -236 -233 -232 0
-270 -265 -264 -235 -234 -232 0
-271 -266 -264 -236 -234 -232 0
-272 -266 -265 -236 -235 -232 0
-270 -268 -267 -235 -234 -233 0
-271 -269 -267 -236 -234 -233 0
-272 -269 -268 -236 -235 -233 0
-272 -271 -270 -236 -235 -234 0
-252 -246 -245 -239 -238 -237 0
-253 -247 -245 -240 -238 -237 0
-254 -248 -245 -241 -238 -237 0
-255 -249 -245 -242 -238 -237 0
-256 -250 -245 -243 -238 -237 0
-257 -251 -245 -244 -238 -237 0
-258 -247 -246 -240 -239 -237 0
-259 -248 -246 -241 -239 -237 0
-260 -249 -246 -242 -239 -237 0
-261 -250 -246 -243 -239 -237 0
-262 -251 -246 -244 -239 -237 0
-263 -248 -247 -241 -240 -237 0
-264 -249 -247 -242 -240 -237 0
-265 -250 -247 -243 -240 -237 0
-266 -251 -247 -244 -240 -237 0
-267 -249 -248 -242 -241 -237 0
-268 -250 -248 -243 -241 -237 0
-269 -251 -248 -244 -241 -237 0
-270 -250 -249 -243 -242 -237 0
-271 -251 -249 -244 -242 -237 0
-272 -251 -250 -244 -243 -237 0
-258 -253 -252 -240 -239 -238 0
-259 -254 -252 -241 -239 -238 0
-260 -255 -252 -242 -239 -238 0
-261 -256 -252 -243 -239 -238 0
-262 -257 -252 -244 -239 -238 0
-263 -254 -253 -241 -240 -238 0
-264 -255 -253 -242 -240 -238 0
-265 -256 -253 -243 -240 -238 0
-266 -257 -253 -244 -240 -238 0
-267 -255 -254 -242 -241 -238 0
-268 -256 -254 -243 -241 -238 0
-269 -257 -254 -244 -241 -238 0
-270 -256 -255 -243 -242 -238 0
-271 -257 -255 -244 -242 -238 0
-272 -257 -256 -244 -243 -238 0
-263 -259 -258 -241 -240 -239 0
-264 -260 -258 -242 -240 -239 0
-265 -261 -258 -243 -240 -239 0
-266 -262 -258 -244 -240 -239 0
-267 -260 -259 -242 -241 -239 0
-268 -261 -259 -243 -241 -239 0
-269 -262 -259 -244 -241 -239 0
-270 -261 -260 -243 -242 -239 0
-271 -262 -260 -244 -242 -239 0
-272 -262 -261 -244 -243 -239 0
-267 -264 -263 -242 -241 -240 0
-268 -265 -263 -243 -241 -240 0
-269 -266 -263 -244 -241 -240 0
-270 -265 -264 -243 -242 -240 0
-271 -266 -264 -244 -242 -240 0
-272 -266 -265 -244 -243 -240 0
-270 -268 -267 -243 -242 -241 0
-271 -269 -267 -244 -242 -241 0
-272 -269 -268 -244 -243 -241 0
-272 -271 -270 -244 -243 -242 0
-258 -253 -252 -247 -246 -245 0
-259 -254 -252 -248 -246 -245 0
-260 -255 -252 -249 -246 -245 0
-261 -256 -252 -250 -246 -245 0
-262 -257 -252 -251 -246 -245 0
-263 -254 -253 -248 -247 -245 0
-264 -255 -253 -249 -247 -245 0
-265 -256 -253 -250 -247 -245 0
-266 -257 -253 -251 -247 -245 0
-267 -255 -254 -249 -248 -245 0
-268 -256 -254 -250 -248 -245 0
-269 -257 -254 -251 -248 -245 0
-270 -256 -255 -250 -249 -245 0
-271 -257 -255 -251 -249 -245 0
-272 -257 -256 -251 -250 -245 0
-263 -259 -258 -248 -247 -246 0
-264 -260 -258 -249 -247 -246 0
-265 -261 -258 -250 -247 -246 0
-266 -262 -258 -251 -247 -246 0
-267 -260 -259 -249 -248 -246 0
-268 -261 -259 -250 -248 -246 0
-269 -262 -259 -251 -248 -246 0
-270 -261 -260 -250 -249 -246 0
-271 -262 -260 -251 -249 -246 0
-272 -262 -261 -251 -250 -246 0
-267 -264 -263 -249 -248 -247 0
-268 -265 -263 -250 -248 -247 0
-269 -266 -263 -251 -248 -247 0
-270 -265 -264 -250 -249 -247 0
-271 -266 -264 -251 -249 -247 0
-272 -266 -265 -251 -250 -247 0
-270 -268 -267 -250 -249 -248 0
-271 -269 -267 -251 -249 -248 0
-272 -269 -268 -251 -250 -248 0
-272 -271 -270 -251 -250 -249 0
-263 -259 -258 -254 -253 -252 0
-264 -260 -258 -255 -253 -252 0
-265 -261 -258 -256 -253 -252 0
-266 -262 -258 -257 -253 -252 0
-267 -260 -259 -255 -254 -252 0
-268 -261 -259 -256 -254 -252 0
-269 -262 -259 -257 -254 -252 0
-270 -261 -260 -256 -255 -252 0
-271 -262 -260 -257 -255 -252 0
-272 -262 -261 -257 -256 -252 0
-267 -264 -263 -255 -254 -253 0
-268 -265 -263 -256 -254 -253 0
-269 -266 -263 -257 -254 -253 0
-270 -265 -264 -256 -255 -253 0
-271 -266 -264 -257 -255 -253 0
-272 -266 -265 -257 -256 -253 0
-270 -268 -267 -256 -255 -254 0
-271 -269 -267 -257 -255 -254 0
-272 -269 -268 -257 -256 -254 0
-272 -271 -270 -257 -256 -255 0
-267 -264 -263 -260 -259 -258 0
-268 -265 -263 -261 -259 -258 0
-269 -266 -263 -262 -259 -258 0
-270 -265 -264 -261 -260 -258 0
-271 -266 -264 -262 -260 -258 0
-272 -266 -265 -262 -261 -258 0
-270 -268 -267 -261 -260 -259 0
-271 -269 -267 -262 -260 -259 0
-272 -269 -268 -262 -261 -259 0
-272 -271 -270 -262 -261 -260 0
-270 -268 -267 -265 -264 -263 0
-271 -269 -267 -266 -264 -263 0
-272 -269 -268 -266 -265 -263 0
-272 -271 -270 -266 -265 -264 0
-272 -271 -270 -269 -268 -267 0
142 6 0
-142 -6 0
141 5 0
-141 -5 0
140 4 0
-140 -4 0
145 9 0
-145 -9 0
148 12 0
-148 -12 0
151 15 0
-151 -15 0
154 18 0
-154 -18 0
157 21 0
-157 -21 0
160 24 0
-160 -24 0
163 27 0
-163 -27 0
166 30 0
-166 -30 0
169 33 0
-169 -33 0
172 36 0
-172 -36 0
175 39 0
-175 -39 0
178 42 0
-178 -42 0
181 45 0
-181 -45 0
139 3 0
-139 -3 0
138 2 0
-138 -2 0
144 8 0
-144 -8 0
147 11 0
-147 -11 0
150 14 0
-150 -14 0
153 17 0
-153 -17 0
156 20 0
-156 -20 0
159 23 0
-159 -23 0
162 26 0
-162 -26 0
165 29 0
-165 -29 0
168 32 0
-168 -32 0
171 35 0
-171 -35 0
174 38 0
-174 -38 0
177 41 0
-177 -41 0
180 44 0
-180 -44 0
137 1 0
-137 -1 0
143 7 0
-143 -7 0
146 10 0
-146 -10 0
149 13 0
-149 -13 0
152 16 0
-152 -16 0
155 19 0
-155 -19 0
158 22 0
-158 -22 0
161 25 0
-161 -25 0
164 28 0
-164 -28 0
167 31 0
-167 -31 0
170 34 0
-170 -34 0
173 37 0
-173 -37 0
176 40 0
-176 -40 0
179 43 0
-179 -43 0
182 46 0
-182 -46 0
183 47 0
-183 -47 0
184 48 0
-184 -48 0
185 49 0
-185 -49 0
186 50 0
-186 -50 0
187 51 0
-187 -51 0
188 52 0
-188 -52 0
189 53 0
-189 -53 0
190 54 0
-190 -54 0
191 55 0
-191 -55 0
192 56 0
-192 -56 0
193 57 0
-193 -57 0
194 58 0
-194 -58 0
195 59 0
-195 -59 0
196 60 0
-196 -60 0
197 61 0
-197 -61 0
198 62 0
-198 -62 0
199 63 0
-199 -63 0
200 64 0
-200 -64 0
201 65 0
-201 -65 0
202 66 0
-202 -66 0
203 67 0
-203 -67 0
204 68 0
-204 -68 0
205 69 0
-205 -69 0
206 70 0
-206 -70 0
207 71 0
-207 -71 0
208 72 0
-208 -72 0
209 73 0
-209 -73 0
210 74 0
-210 -74 0
211 75 0
-211 -75 0
212 76 0
-212 -76 0
213 77 0
-213 -77 0
214 78 0
-214 -78 0
215 79 0
-215 -79 0
216 80 0
-216 -80 0
217 81 0
-217 -81 0
218 82 0
-218 -82 0
219 83 0
-219 -83 0
220 84 0
-220 -84 0
221 85 0
-221 -85 0
222 86 0
-222 -86 0
223 87 0
-223 -87 0
224 88 0
-224 -88 0
225 89 0
-225 -89 0
226 90 0
-226 -90 0
227 91 0
-227 -91 0
228 92 0
-228 -92 0
229 93 0
-229 -93 0
230 94 0
-230 -94 0
231 95 0
-231 -95 0
232 96 0
-232 -96 0
233 97 0
-233 -97 0
234 98 0
-234 -98 0
235 99 0
-235 -99 0
236 100 0
-236 -100 0
237 101 0
-237 -101 0
238 102 0
-238 -102 0
239 103 0
-239 -103 0
240 104 0
-240 -104 0
241 105 0
-241 -105 0
242 106 0
-242 -106 0
243 107 0
-243 -107 0
244 108 0
-244 -108 0
245 109 0
-245 -109 0
246 110 0
-246 -110 0
247 111 0
-247 -111 0
248 112 0
-248 -112 0
249 113 0
-249 -113 0
250 114 0
-250 -114 0
251 115 0
-251 -115 0
252 116 0
-252 -116 0
253 117 0
-253 -117 0
254 118 0
-254 -118 0
255 119 0
-255 -119 0
256 120 0
-256 -120 0
257 121 0
-257 -121 0
258 122 0
-258 -122 0
259 123 0
-259 -123 0
260 124 0
-260 -124 0
261 125 0
-261 -125 0
262 126 0
-262 -126 0
263 127 0
-263 -127 0
264 128 0
-264 -128 0
265 129 0
-265 -129 0
266 130 0
-266 -130 0
267 131 0
-267 -131 0
268 132 0
-268 -132 0
269 133 0
-269 -133 0
270 134 0
-270 -134 0
271 135 0
-271 -135 0
272 136 0
-272 -136 0
