p cnf 1000 1000
3 -1 0
2 -1 0
6 -2 -3 0
5 -2 -3 0
4 -2 -3 0
10 -4 -5 -6 0
9 -4 -5 -6 0
8 -4 -5 -6 0
7 -4 -5 -6 0
12 -1 0
11 -1 0
15 -11 -12 0
14 -11 -12 0
13 -11 -12 0
19 -13 -14 -15 0
18 -13 -14 -15 0
17 -13 -14 -15 0
16 -13 -14 -15 0
21 -1 0
20 -1 0
24 -20 -21 0
23 -20 -21 0
22 -20 -21 0
28 -22 -23 -24 0
27 -22 -23 -24 0
26 -22 -23 -24 0
25 -22 -23 -24 0
30 -1 0
29 -1 0
33 -29 -30 0
32 -29 -30 0
31 -29 -30 0
37 -31 -32 -33 0
36 -31 -32 -33 0
35 -31 -32 -33 0
34 -31 -32 -33 0
39 -1 0
38 -1 0
42 -38 -39 0
41 -38 -39 0
40 -38 -39 0
46 -40 -41 -42 0
45 -40 -41 -42 0
44 -40 -41 -42 0
43 -40 -41 -42 0
48 -1 0
47 -1 0
51 -47 -48 0
50 -47 -48 0
49 -47 -48 0
55 -49 -50 -51 0
54 -49 -50 -51 0 
53 -49 -50 -51 0
52 -49 -50 -51 0
57 -1 0
56 -1 0
60 -56 -57 0
59 -56 -57 0
58 -56 -57 0
64 -58 -59 -60 0
63 -58 -59 -60 0
62 -58 -59 -60 0
61 -58 -59 -60 0
66 -1 0
65 -1 0 
69 -65 -66 0
68 -65 -66 0
67 -65 -66 0
73 -67 -68 -69 0
72 -67 -68 -69 0
71 -67 -68 -69 0
70 -67 -68 -69 0
75 -1 0
74 -1 0
78 -74 -75 0
77 -74 -75 0
76 -74 -75 0
82 -76 -77 -78 0
81 -76 -77 -78 0
80 -76 -77 -78 0
79 -76 -77 -78 0
84 -1 0
83 -1 0
87 -83 -84 0 
86 -83 -84 0
85 -83 -84 0
91 -85 -86 -87 0
90 -85 -86 -87 0
89 -85 -86 -87 0
88 -85 -86 -87 0
93 -1 0
92 -1 0
96 -92 -93 0
95 -92 -93 0
94 -92 -93 0
100 -94 -95 -96 0
99 -94 -95 -96 0
98 -94 -95 -96 0
97 -94 -95 -96 0
102 -1 0
101 -1 0
105 -101 -102 0
104 -101 -102 0
103 -101 -102 0
109 -103 -104 -105 0
108 -103 -104 -105 0
107 -103 -104 -105 0
106 -103 -104 -105 0
111 -1 0
110 -1 0
114 -110 -111 0
113 -110 -111 0
112 -110 -111 0
118 -112 -113 -114 0
117 -112 -113 -114 0
116 -112 -113 -114 0
115 -112 -113 -114 0
120 -1 0
119 -1 0
123 -119 -120 0
122 -119 -120 0
121 -119 -120 0
127 -121 -122 -123 0
126 -121 -122 -123 0
125 -121 -122 -123 0
124 -121 -122 -123 0
129 -1 0
128 -1 0
132 -128 -129 0
131 -128 -129 0
130 -128 -129 0
136 -130 -131 -132 0
135 -130 -131 -132 0
134 -130 -131 -132 0
133 -130 -131 -132 0
138 -1 0
137 -1 0
141 -137 -138 0
140 -137 -138 0
139 -137 -138 0
145 -139 -140 -141 0
144 -139 -140 -141 0
143 -139 -140 -141 0
142 -139 -140 -141 0
147 -1 0
146 -1 0
150 -146 -147 0
149 -146 -147 0
148 -146 -147 0
154 -148 -149 -150 0
153 -148 -149 -150 0
152 -148 -149 -150 0
151 -148 -149 -150 0
156 -1 0
155 -1 0
159 -155 -156 0
158 -155 -156 0
157 -155 -156 0
163 -157 -158 -159 0
162 -157 -158 -159 0
161 -157 -158 -159 0
160 -157 -158 -159 0
165 -1 0
164 -1 0
168 -164 -165 0
167 -164 -165 0
166 -164 -165 0
172 -166 -167 -168 0
171 -166 -167 -168 0
170 -166 -167 -168 0
169 -166 -167 -168 0
174 -1 0
173 -1 0
177 -173 -174 0
176 -173 -174 0
175 -173 -174 0
181 -175 -176 -177 0
180 -175 -176 -177 0
179 -175 -176 -177 0
178 -175 -176 -177 0
183 -1 0
182 -1 0
186 -182 -183 0
185 -182 -183 0
184 -182 -183 0
190 -184 -185 -186 0
189 -184 -185 -186 0
188 -184 -185 -186 0
187 -184 -185 -186 0
192 -1 0
191 -1 0
195 -191 -192 0
194 -191 -192 0
193 -191 -192 0
199 -193 -194 -195 0
198 -193 -194 -195 0
197 -193 -194 -195 0
196 -193 -194 -195 0
201 -1 0
200 -1 0
204 -200 -201 0
203 -200 -201 0
202 -200 -201 0
208 -202 -203 -204 0
207 -202 -203 -204 0
206 -202 -203 -204 0
205 -202 -203 -204 0
210 -1 0
209 -1 0
213 -209 -210 0
212 -209 -210 0
211 -209 -210 0
217 -211 -212 -213 0
216 -211 -212 -213 0
215 -211 -212 -213 0
214 -211 -212 -213 0
219 -1 0
218 -1 0
222 -218 -219 0
221 -218 -219 0
220 -218 -219 0
226 -220 -221 -222 0
225 -220 -221 -222 0
224 -220 -221 -222 0
223 -220 -221 -222 0
228 -1 0
227 -1 0
231 -227 -228 0
230 -227 -228 0
229 -227 -228 0
235 -229 -230 -231 0
234 -229 -230 -231 0
233 -229 -230 -231 0
232 -229 -230 -231 0
237 -1 0
236 -1 0
240 -236 -237 0
239 -236 -237 0
238 -236 -237 0
244 -238 -239 -240 0
243 -238 -239 -240 0
242 -238 -239 -240 0
241 -238 -239 -240 0
246 -1 0
245 -1 0
249 -245 -246 0
248 -245 -246 0
247 -245 -246 0
253 -247 -248 -249 0
252 -247 -248 -249 0 
251 -247 -248 -249 0
250 -247 -248 -249 0
255 -1 0
254 -1 0
258 -254 -255 0
257 -254 -255 0
256 -254 -255 0
262 -256 -257 -258 0
261 -256 -257 -258 0
260 -256 -257 -258 0
259 -256 -257 -258 0
264 -1 0
263 -1 0
267 -263 -264 0
266 -263 -264 0
265 -263 -264 0
271 -265 -266 -267 0
270 -265 -266 -267 0
269 -265 -266 -267 0
268 -265 -266 -267 0
273 -1 0
272 -1 0
276 -272 -273 0
275 -272 -273 0
274 -272 -273 0
280 -274 -275 -276 0
279 -274 -275 -276 0
278 -274 -275 -276 0
277 -274 -275 -276 0
282 -1 0
281 -1 0
285 -281 -282 0
284 -281 -282 0
283 -281 -282 0
289 -283 -284 -285 0
288 -283 -284 -285 0
287 -283 -284 -285 0
286 -283 -284 -285 0
291 -1 0
290 -1 0
294 -290 -291 0
293 -290 -291 0
292 -290 -291 0
298 -292 -293 -294 0
297 -292 -293 -294 0
296 -292 -293 -294 0
295 -292 -293 -294 0
300 -1 0
299 -1 0
303 -299 -300 0
302 -299 -300 0
301 -299 -300 0
307 -301 -302 -303 0
306 -301 -302 -303 0
305 -301 -302 -303 0
304 -301 -302 -303 0
309 -1 0
308 -1 0
312 -308 -309 0
311 -308 -309 0
310 -308 -309 0
316 -310 -311 -312 0
315 -310 -311 -312 0
314 -310 -311 -312 0
313 -310 -311 -312 0
318 -1 0
317 -1 0
321 -317 -318 0
320 -317 -318 0
319 -317 -318 0
325 -319 -320 -321 0
324 -319 -320 -321 0
323 -319 -320 -321 0
322 -319 -320 -321 0
327 -1 0
326 -1 0
330 -326 -327 0
329 -326 -327 0
328 -326 -327 0
334 -328 -329 -330 0
333 -328 -329 -330 0
332 -328 -329 -330 0
331 -328 -329 -330 0
336 -1 0
335 -1 0
339 -335 -336 0
338 -335 -336 0
337 -335 -336 0
343 -337 -338 -339 0
342 -337 -338 -339 0
341 -337 -338 -339 0
340 -337 -338 -339 0
345 -1 0
344 -1 0
348 -344 -345 0
347 -344 -345 0
346 -344 -345 0
352 -346 -347 -348 0
351 -346 -347 -348 0
350 -346 -347 -348 0
349 -346 -347 -348 0
354 -1 0
353 -1 0
357 -353 -354 0
356 -353 -354 0
355 -353 -354 0
361 -355 -356 -357 0
360 -355 -356 -357 0
359 -355 -356 -357 0
358 -355 -356 -357 0
363 -1 0
362 -1 0
366 -362 -363 0
365 -362 -363 0
364 -362 -363 0
370 -364 -365 -366 0
369 -364 -365 -366 0
368 -364 -365 -366 0
367 -364 -365 -366 0
372 -1 0
371 -1 0
375 -371 -372 0
374 -371 -372 0
373 -371 -372 0
379 -373 -374 -375 0
378 -373 -374 -375 0
377 -373 -374 -375 0
376 -373 -374 -375 0
381 -1 0
380 -1 0
384 -380 -381 0
383 -380 -381 0
382 -380 -381 0
388 -382 -383 -384 0
387 -382 -383 -384 0
386 -382 -383 -384 0
385 -382 -383 -384 0
390 -1 0
389 -1 0
393 -389 -390 0
392 -389 -390 0
391 -389 -390 0
397 -391 -392 -393 0
396 -391 -392 -393 0
395 -391 -392 -393 0
394 -391 -392 -393 0
399 -1 0
398 -1 0
402 -398 -399 0
401 -398 -399 0
400 -398 -399 0
406 -400 -401 -402 0
405 -400 -401 -402 0
404 -400 -401 -402 0
403 -400 -401 -402 0
408 -1 0
407 -1 0
411 -407 -408 0
410 -407 -408 0
409 -407 -408 0
415 -409 -410 -411 0
414 -409 -410 -411 0
413 -409 -410 -411 0
412 -409 -410 -411 0
417 -1 0
416 -1 0
420 -416 -417 0
419 -416 -417 0
418 -416 -417 0
424 -418 -419 -420 0
423 -418 -419 -420 0
422 -418 -419 -420 0
421 -418 -419 -420 0
426 -1 0
425 -1 0
429 -425 -426 0
428 -425 -426 0
427 -425 -426 0
433 -427 -428 -429 0 
432 -427 -428 -429 0
431 -427 -428 -429 0
430 -427 -428 -429 0
435 -1 0
434 -1 0
438 -434 -435 0
437 -434 -435 0
436 -434 -435 0
442 -436 -437 -438 0
441 -436 -437 -438 0
440 -436 -437 -438 0
439 -436 -437 -438 0
444 -1 0
443 -1 0
447 -443 -444 0
446 -443 -444 0
445 -443 -444 0
451 -445 -446 -447 0
450 -445 -446 -447 0
449 -445 -446 -447 0
448 -445 -446 -447 0
453 -1 0
452 -1 0
456 -452 -453 0
455 -452 -453 0
454 -452 -453 0
460 -454 -455 -456 0
459 -454 -455 -456 0
458 -454 -455 -456 0
457 -454 -455 -456 0
462 -1 0
461 -1 0
465 -461 -462 0
464 -461 -462 0
463 -461 -462 0
469 -463 -464 -465 0
468 -463 -464 -465 0
467 -463 -464 -465 0
466 -463 -464 -465 0
471 -1 0
470 -1 0 
474 -470 -471 0
473 -470 -471 0
472 -470 -471 0
478 -472 -473 -474 0
477 -472 -473 -474 0
476 -472 -473 -474 0
475 -472 -473 -474 0
480 -1 0
479 -1 0
483 -479 -480 0
482 -479 -480 0
481 -479 -480 0
487 -481 -482 -483 0
486 -481 -482 -483 0
485 -481 -482 -483 0
484 -481 -482 -483 0
489 -1 0
488 -1 0
492 -488 -489 0
491 -488 -489 0
490 -488 -489 0
496 -490 -491 -492 0
495 -490 -491 -492 0
494 -490 -491 -492 0
493 -490 -491 -492 0
498 -1 0
497 -1 0
501 -497 -498 0
500 -497 -498 0
499 -497 -498 0
505 -499 -500 -501 0
504 -499 -500 -501 0
503 -499 -500 -501 0
502 -499 -500 -501 0
507 -1 0
506 -1 0
510 -506 -507 0
509 -506 -507 0
508 -506 -507 0
514 -508 -509 -510 0
513 -508 -509 -510 0
512 -508 -509 -510 0
511 -508 -509 -510 0
516 -1 0
515 -1 0
519 -515 -516 0 
518 -515 -516 0
517 -515 -516 0
523 -517 -518 -519 0
522 -517 -518 -519 0
521 -517 -518 -519 0
520 -517 -518 -519 0
525 -1 0
524 -1 0
528 -524 -525 0
527 -524 -525 0
526 -524 -525 0
532 -526 -527 -528 0
531 -526 -527 -528 0
530 -526 -527 -528 0
529 -526 -527 -528 0
534 -1 0
533 -1 0
537 -533 -534 0
536 -533 -534 0
535 -533 -534 0
541 -535 -536 -537 0
540 -535 -536 -537 0
539 -535 -536 -537 0
538 -535 -536 -537 0
543 -1 0 
542 -1 0
546 -542 -543 0
545 -542 -543 0
544 -542 -543 0
550 -544 -545 -546 0
549 -544 -545 -546 0
548 -544 -545 -546 0
547 -544 -545 -546 0
552 -1 0
551 -1 0
555 -551 -552 0
554 -551 -552 0
553 -551 -552 0
559 -553 -554 -555 0
558 -553 -554 -555 0
557 -553 -554 -555 0
556 -553 -554 -555 0
561 -1 0
560 -1 0
564 -560 -561 0
563 -560 -561 0 
562 -560 -561 0
568 -562 -563 -564 0
567 -562 -563 -564 0
566 -562 -563 -564 0
565 -562 -563 -564 0
570 -1 0
569 -1 0
573 -569 -570 0
572 -569 -570 0
571 -569 -570 0
577 -571 -572 -573 0
576 -571 -572 -573 0
575 -571 -572 -573 0
574 -571 -572 -573 0
579 -1 0
578 -1 0
582 -578 -579 0
581 -578 -579 0
580 -578 -579 0
586 -580 -581 -582 0
585 -580 -581 -582 0
584 -580 -581 -582 0
583 -580 -581 -582 0
588 -1 0
587 -1 0
591 -587 -588 0
590 -587 -588 0
589 -587 -588 0
595 -589 -590 -591 0
594 -589 -590 -591 0
593 -589 -590 -591 0
592 -589 -590 -591 0
597 -1 0
596 -1 0
600 -596 -597 0
599 -596 -597 0
598 -596 -597 0
604 -598 -599 -600 0
603 -598 -599 -600 0
602 -598 -599 -600 0
601 -598 -599 -600 0
606 -1 0
605 -1 0
609 -605 -606 0
608 -605 -606 0
607 -605 -606 0 
613 -607 -608 -609 0
612 -607 -608 -609 0
611 -607 -608 -609 0
610 -607 -608 -609 0 
615 -1 0
614 -1 0
618 -614 -615 0
617 -614 -615 0
616 -614 -615 0
622 -616 -617 -618 0
621 -616 -617 -618 0
620 -616 -617 -618 0
619 -616 -617 -618 0
624 -1 0
623 -1 0
627 -623 -624 0
626 -623 -624 0
625 -623 -624 0
631 -625 -626 -627 0
630 -625 -626 -627 0
629 -625 -626 -627 0
628 -625 -626 -627 0
633 -1 0
632 -1 0
636 -632 -633 0
635 -632 -633 0
634 -632 -633 0
640 -634 -635 -636 0
639 -634 -635 -636 0
638 -634 -635 -636 0
637 -634 -635 -636 0
642 -1 0
641 -1 0
645 -641 -642 0
644 -641 -642 0
643 -641 -642 0
649 -643 -644 -645 0
648 -643 -644 -645 0
647 -643 -644 -645 0
646 -643 -644 -645 0
651 -1 0
650 -1 0
654 -650 -651 0
653 -650 -651 0
652 -650 -651 0
658 -652 -653 -654 0
657 -652 -653 -654 0
656 -652 -653 -654 0
655 -652 -653 -654 0
660 -1 0
659 -1 0
663 -659 -660 0
662 -659 -660 0
661 -659 -660 0
667 -661 -662 -663 0
666 -661 -662 -663 0
665 -661 -662 -663 0
664 -661 -662 -663 0
669 -1 0
668 -1 0
672 -668 -669 0
671 -668 -669 0
670 -668 -669 0
676 -670 -671 -672 0
675 -670 -671 -672 0
674 -670 -671 -672 0
673 -670 -671 -672 0
678 -1 0
677 -1 0
681 -677 -678 0
680 -677 -678 0
679 -677 -678 0
685 -679 -680 -681 0
684 -679 -680 -681 0
683 -679 -680 -681 0
682 -679 -680 -681 0
687 -1 0
686 -1 0
690 -686 -687 0
689 -686 -687 0
688 -686 -687 0
694 -688 -689 -690 0
693 -688 -689 -690 0
692 -688 -689 -690 0
691 -688 -689 -690 0
696 -1 0
695 -1 0
699 -695 -696 0
698 -695 -696 0
697 -695 -696 0
703 -697 -698 -699 0
702 -697 -698 -699 0
701 -697 -698 -699 0
700 -697 -698 -699 0
705 -1 0
704 -1 0
708 -704 -705 0
707 -704 -705 0
706 -704 -705 0
712 -706 -707 -708 0
711 -706 -707 -708 0
710 -706 -707 -708 0
709 -706 -707 -708 0
714 -1 0
713 -1 0
717 -713 -714 0
716 -713 -714 0
715 -713 -714 0
721 -715 -716 -717 0
720 -715 -716 -717 0
719 -715 -716 -717 0
718 -715 -716 -717 0
723 -1 0
722 -1 0
726 -722 -723 0
725 -722 -723 0
724 -722 -723 0
730 -724 -725 -726 0
729 -724 -725 -726 0
728 -724 -725 -726 0
727 -724 -725 -726 0
732 -1 0
731 -1 0
735 -731 -732 0
734 -731 -732 0
733 -731 -732 0
739 -733 -734 -735 0
738 -733 -734 -735 0
737 -733 -734 -735 0
736 -733 -734 -735 0
741 -1 0
740 -1 0
744 -740 -741 0
743 -740 -741 0
742 -740 -741 0
748 -742 -743 -744 0
747 -742 -743 -744 0
746 -742 -743 -744 0
745 -742 -743 -744 0
750 -1 0
749 -1 0
753 -749 -750 0
752 -749 -750 0
751 -749 -750 0
757 -751 -752 -753 0
756 -751 -752 -753 0
755 -751 -752 -753 0
754 -751 -752 -753 0
759 -1 0
758 -1 0
762 -758 -759 0
761 -758 -759 0
760 -758 -759 0
766 -760 -761 -762 0
765 -760 -761 -762 0
764 -760 -761 -762 0
763 -760 -761 -762 0
768 -1 0
767 -1 0
771 -767 -768 0
770 -767 -768 0
769 -767 -768 0
775 -769 -770 -771 0
774 -769 -770 -771 0
773 -769 -770 -771 0
772 -769 -770 -771 0
777 -1 0
776 -1 0
780 -776 -777 0
779 -776 -777 0
778 -776 -777 0
784 -778 -779 -780 0
783 -778 -779 -780 0
782 -778 -779 -780 0
781 -778 -779 -780 0
786 -1 0
785 -1 0
789 -785 -786 0
788 -785 -786 0
787 -785 -786 0
793 -787 -788 -789 0
792 -787 -788 -789 0
791 -787 -788 -789 0 
790 -787 -788 -789 0
795 -1 0
794 -1 0
798 -794 -795 0
797 -794 -795 0
796 -794 -795 0
802 -796 -797 -798 0
801 -796 -797 -798 0
800 -796 -797 -798 0
799 -796 -797 -798 0
804 -1 0
803 -1 0
807 -803 -804 0
806 -803 -804 0
805 -803 -804 0
811 -805 -806 -807 0
810 -805 -806 -807 0
809 -805 -806 -807 0
808 -805 -806 -807 0
813 -1 0
812 -1 0
816 -812 -813 0
815 -812 -813 0
814 -812 -813 0
820 -814 -815 -816 0
819 -814 -815 -816 0
818 -814 -815 -816 0
817 -814 -815 -816 0
822 -1 0
821 -1 0
825 -821 -822 0
824 -821 -822 0
823 -821 -822 0
829 -823 -824 -825 0
828 -823 -824 -825 0
827 -823 -824 -825 0
826 -823 -824 -825 0
831 -1 0
830 -1 0
834 -830 -831 0
833 -830 -831 0
832 -830 -831 0
838 -832 -833 -834 0
837 -832 -833 -834 0
836 -832 -833 -834 0
835 -832 -833 -834 0
840 -1 0
839 -1 0
843 -839 -840 0
842 -839 -840 0
841 -839 -840 0
847 -841 -842 -843 0
846 -841 -842 -843 0
845 -841 -842 -843 0
844 -841 -842 -843 0
849 -1 0
848 -1 0
852 -848 -849 0
851 -848 -849 0
850 -848 -849 0
856 -850 -851 -852 0
855 -850 -851 -852 0
854 -850 -851 -852 0
853 -850 -851 -852 0
858 -1 0
857 -1 0
861 -857 -858 0
860 -857 -858 0
859 -857 -858 0
865 -859 -860 -861 0
864 -859 -860 -861 0
863 -859 -860 -861 0
862 -859 -860 -861 0
867 -1 0
866 -1 0
870 -866 -867 0
869 -866 -867 0
868 -866 -867 0
874 -868 -869 -870 0
873 -868 -869 -870 0
872 -868 -869 -870 0
871 -868 -869 -870 0
876 -1 0
875 -1 0
879 -875 -876 0
878 -875 -876 0
877 -875 -876 0
883 -877 -878 -879 0
882 -877 -878 -879 0
881 -877 -878 -879 0
880 -877 -878 -879 0
885 -1 0
884 -1 0
888 -884 -885 0
887 -884 -885 0
886 -884 -885 0
892 -886 -887 -888 0
891 -886 -887 -888 0
890 -886 -887 -888 0
889 -886 -887 -888 0
894 -1 0
893 -1 0
897 -893 -894 0
896 -893 -894 0
895 -893 -894 0
901 -895 -896 -897 0
900 -895 -896 -897 0
899 -895 -896 -897 0
898 -895 -896 -897 0
903 -1 0
902 -1 0
906 -902 -903 0
905 -902 -903 0
904 -902 -903 0
910 -904 -905 -906 0
909 -904 -905 -906 0
908 -904 -905 -906 0
907 -904 -905 -906 0
912 -1 0
911 -1 0
915 -911 -912 0
914 -911 -912 0
913 -911 -912 0
919 -913 -914 -915 0
918 -913 -914 -915 0
917 -913 -914 -915 0
916 -913 -914 -915 0
921 -1 0
920 -1 0
924 -920 -921 0
923 -920 -921 0
922 -920 -921 0
928 -922 -923 -924 0
927 -922 -923 -924 0
926 -922 -923 -924 0
925 -922 -923 -924 0
930 -1 0
929 -1 0
933 -929 -930 0
932 -929 -930 0
931 -929 -930 0
937 -931 -932 -933 0
936 -931 -932 -933 0
935 -931 -932 -933 0
934 -931 -932 -933 0
939 -1 0
938 -1 0
942 -938 -939 0
941 -938 -939 0
940 -938 -939 0
946 -940 -941 -942 0
945 -940 -941 -942 0
944 -940 -941 -942 0
943 -940 -941 -942 0
948 -1 0
947 -1 0
951 -947 -948 0
950 -947 -948 0
949 -947 -948 0
955 -949 -950 -951 0
954 -949 -950 -951 0
953 -949 -950 -951 0
952 -949 -950 -951 0
957 -1 0
956 -1 0
960 -956 -957 0
959 -956 -957 0
958 -956 -957 0
964 -958 -959 -960 0
963 -958 -959 -960 0
962 -958 -959 -960 0
961 -958 -959 -960 0
966 -1 0
965 -1 0
969 -965 -966 0
968 -965 -966 0
967 -965 -966 0
973 -967 -968 -969 0
972 -967 -968 -969 0 
971 -967 -968 -969 0
970 -967 -968 -969 0
975 -1 0
974 -1 0
978 -974 -975 0
977 -974 -975 0
976 -974 -975 0
982 -976 -977 -978 0
981 -976 -977 -978 0
980 -976 -977 -978 0
979 -976 -977 -978 0
984 -1 0
983 -1 0
987 -983 -984 0
986 -983 -984 0
985 -983 -984 0
991 -985 -986 -987 0
990 -985 -986 -987 0
989 -985 -986 -987 0
988 -985 -986 -987 0
993 -1 0
992 -1 0
996 -992 -993 0
995 -992 -993 0
994 -992 -993 0
1000 -994 -995 -996 0
999 -994 -995 -996 0
998 -994 -995 -996 0
997 -994 -995 -996 0
1 0
