p cnf 1288 3801
26 27 -32 0
-26 32 0
-27 32 0
-26 -27 0
28 32 -34 0
-32 34 0
-28 34 0
-28 -32 0
29 34 -36 0
-34 36 0
-29 36 0
-29 -34 0
30 36 -38 0
-36 38 0
-30 38 0
-30 -36 0
31 38 0
-31 -38 0
47 48 0
-47 -48 0
46 49 0
-46 -49 0
45 50 0
-45 -50 0
44 51 0
-44 -51 0
-50 -51 52 0
50 -52 0
51 -52 0
-49 -52 53 0
49 -53 0
52 -53 0
-48 -53 54 0
48 -54 0
53 -54 0
-26 -54 55 0
26 -55 0
54 -55 0
-59 60 0
59 -60 0
-58 61 0
58 -61 0
57 62 0
-57 -62 0
56 63 0
-56 -63 0
-62 -63 64 0
62 -64 0
63 -64 0
-61 -64 65 0
61 -65 0
64 -65 0
-60 -65 66 0
60 -66 0
65 -66 0
-55 -66 67 0
55 -67 0
66 -67 0
-47 68 0
47 -68 0
46 69 0
-46 -69 0
-45 70 0
45 -70 0
44 71 0
-44 -71 0
-70 -71 72 0
70 -72 0
71 -72 0
-69 -72 73 0
69 -73 0
72 -73 0
-68 -73 74 0
68 -74 0
73 -74 0
-27 -74 75 0
27 -75 0
74 -75 0
59 76 0
-59 -76 0
58 77 0
-58 -77 0
57 78 0
-57 -78 0
56 79 0
-56 -79 0
-78 -79 80 0
78 -80 0
79 -80 0
-77 -80 81 0
77 -81 0
80 -81 0
-76 -81 82 0
76 -82 0
81 -82 0
-75 -82 83 0
75 -83 0
82 -83 0
67 83 -84 0
-67 84 0
-83 84 0
59 85 0
-59 -85 0
58 86 0
-58 -86 0
57 87 0
-57 -87 0
56 88 0
-56 -88 0
-87 -88 89 0
87 -89 0
88 -89 0
-86 -89 90 0
86 -90 0
89 -90 0
-85 -90 91 0
85 -91 0
90 -91 0
-28 -91 92 0
28 -92 0
91 -92 0
47 93 0
-47 -93 0
46 94 0
-46 -94 0
45 95 0
-45 -95 0
44 96 0
-44 -96 0
-95 -96 97 0
95 -97 0
96 -97 0
-94 -97 98 0
94 -98 0
97 -98 0
-93 -98 99 0
93 -99 0
98 -99 0
-92 -99 100 0
92 -100 0
99 -100 0
84 100 -101 0
-84 101 0
-100 101 0
59 102 0
-59 -102 0
58 103 0
-58 -103 0
57 104 0
-57 -104 0
56 105 0
-56 -105 0
-104 -105 106 0
104 -106 0
105 -106 0
-103 -106 107 0
103 -107 0
106 -107 0
-102 -107 108 0
102 -108 0
107 -108 0
-29 -108 109 0
29 -109 0
108 -109 0
47 110 0
-47 -110 0
46 111 0
-46 -111 0
45 112 0
-45 -112 0
44 113 0
-44 -113 0
-112 -113 114 0
112 -114 0
113 -114 0
-111 -114 115 0
111 -115 0
114 -115 0
-110 -115 116 0
110 -116 0
115 -116 0
-109 -116 117 0
109 -117 0
116 -117 0
101 117 -118 0
-101 118 0
-117 118 0
47 153 0
-47 -153 0
46 154 0
-46 -154 0
45 155 0
-45 -155 0
44 156 0
-44 -156 0
-156 158 0
156 -158 0
-155 -158 159 0
155 -159 0
158 -159 0
-154 -159 160 0
154 -160 0
159 -160 0
-153 -160 161 0
153 -161 0
160 -161 0
-30 -161 162 0
30 -162 0
161 -162 0
47 163 0
-47 -163 0
-47 164 0
47 -164 0
163 164 -165 0
-163 165 0
-164 165 0
46 166 0
-46 -166 0
165 -166 167 0
-165 166 167 0
-165 -166 -167 0
165 166 -167 0
-165 -166 168 0
166 -168 0
165 -168 0
-46 169 0
46 -169 0
168 169 -170 0
-168 170 0
-169 170 0
45 171 0
-45 -171 0
170 -171 172 0
-170 171 172 0
-170 -171 -172 0
170 171 -172 0
-170 -171 173 0
171 -173 0
170 -173 0
-45 174 0
45 -174 0
173 174 -175 0
-173 175 0
-174 175 0
44 176 0
-44 -176 0
175 -176 177 0
-175 176 177 0
-175 -176 -177 0
175 176 -177 0
-175 -176 178 0
176 -178 0
175 -178 0
-44 179 0
44 -179 0
178 179 -180 0
-178 180 0
-179 180 0
-163 181 0
163 -181 0
181 -183 0
-181 183 0
167 184 0
-167 -184 0
183 -184 185 0
-183 184 185 0
-183 -184 -185 0
183 184 -185 0
-183 -184 186 0
184 -186 0
183 -186 0
186 -188 0
-186 188 0
172 189 0
-172 -189 0
188 -189 190 0
-188 189 190 0
-188 -189 -190 0
188 189 -190 0
-188 -189 191 0
189 -191 0
188 -191 0
191 -193 0
-191 193 0
177 194 0
-177 -194 0
193 -194 195 0
-193 194 195 0
-193 -194 -195 0
193 194 -195 0
-193 -194 196 0
194 -196 0
193 -196 0
196 -198 0
-196 198 0
-180 198 199 0
180 -198 199 0
-180 -198 -199 0
180 198 -199 0
-180 -198 200 0
180 -200 0
198 -200 0
-180 200 201 0
180 -200 201 0
-180 -200 -201 0
180 200 -201 0
-180 -200 202 0
180 -202 0
200 -202 0
59 -181 203 0
-59 181 203 0
59 181 -203 0
-59 -181 -203 0
58 185 204 0
-58 -185 204 0
58 -185 -204 0
-58 185 -204 0
57 190 205 0
-57 -190 205 0
57 -190 -205 0
-57 190 -205 0
56 195 206 0
-56 -195 206 0
56 -195 -206 0
-56 195 -206 0
199 207 0
-199 -207 0
201 208 0
-201 -208 0
-207 -208 209 0
207 -209 0
208 -209 0
-206 -209 210 0
206 -210 0
209 -210 0
-205 -210 211 0
205 -211 0
210 -211 0
-204 -211 212 0
204 -212 0
211 -212 0
-203 -212 213 0
203 -213 0
212 -213 0
-162 -213 214 0
162 -214 0
213 -214 0
118 214 -215 0
-118 215 0
-214 215 0
59 250 0
-59 -250 0
58 251 0
-58 -251 0
57 252 0
-57 -252 0
56 253 0
-56 -253 0
-253 255 0
253 -255 0
-252 -255 256 0
252 -256 0
255 -256 0
-251 -256 257 0
251 -257 0
256 -257 0
-250 -257 258 0
250 -258 0
257 -258 0
-31 -258 259 0
31 -259 0
258 -259 0
59 260 0
-59 -260 0
-59 261 0
59 -261 0
260 261 -262 0
-260 262 0
-261 262 0
58 263 0
-58 -263 0
262 -263 264 0
-262 263 264 0
-262 -263 -264 0
262 263 -264 0
-262 -263 265 0
263 -265 0
262 -265 0
-58 266 0
58 -266 0
265 266 -267 0
-265 267 0
-266 267 0
57 268 0
-57 -268 0
267 -268 269 0
-267 268 269 0
-267 -268 -269 0
267 268 -269 0
-267 -268 270 0
268 -270 0
267 -270 0
-57 271 0
57 -271 0
270 271 -272 0
-270 272 0
-271 272 0
56 273 0
-56 -273 0
272 -273 274 0
-272 273 274 0
-272 -273 -274 0
272 273 -274 0
-272 -273 275 0
273 -275 0
272 -275 0
-56 276 0
56 -276 0
275 276 -277 0
-275 277 0
-276 277 0
-260 278 0
260 -278 0
278 -280 0
-278 280 0
264 281 0
-264 -281 0
280 -281 282 0
-280 281 282 0
-280 -281 -282 0
280 281 -282 0
-280 -281 283 0
281 -283 0
280 -283 0
283 -285 0
-283 285 0
269 286 0
-269 -286 0
285 -286 287 0
-285 286 287 0
-285 -286 -287 0
285 286 -287 0
-285 -286 288 0
286 -288 0
285 -288 0
288 -290 0
-288 290 0
274 291 0
-274 -291 0
290 -291 292 0
-290 291 292 0
-290 -291 -292 0
290 291 -292 0
-290 -291 293 0
291 -293 0
290 -293 0
293 -295 0
-293 295 0
-277 295 296 0
277 -295 296 0
-277 -295 -296 0
277 295 -296 0
-277 -295 297 0
277 -297 0
295 -297 0
-277 297 298 0
277 -297 298 0
-277 -297 -298 0
277 297 -298 0
-277 -297 299 0
277 -299 0
297 -299 0
47 -278 300 0
-47 278 300 0
47 278 -300 0
-47 -278 -300 0
46 282 301 0
-46 -282 301 0
46 -282 -301 0
-46 282 -301 0
45 287 302 0
-45 -287 302 0
45 -287 -302 0
-45 287 -302 0
44 292 303 0
-44 -292 303 0
44 -292 -303 0
-44 292 -303 0
296 304 0
-296 -304 0
298 305 0
-298 -305 0
-304 -305 306 0
304 -306 0
305 -306 0
-303 -306 307 0
303 -307 0
306 -307 0
-302 -307 308 0
302 -308 0
307 -308 0
-301 -308 309 0
301 -309 0
308 -309 0
-300 -309 310 0
300 -310 0
309 -310 0
-259 -310 311 0
259 -311 0
310 -311 0
215 311 0
314 315 -320 0
-314 320 0
-315 320 0
-314 -315 0
316 320 -322 0
-320 322 0
-316 322 0
-316 -320 0
317 322 -324 0
-322 324 0
-317 324 0
-317 -322 0
318 324 -326 0
-324 326 0
-318 326 0
-318 -324 0
319 326 0
-319 -326 0
47 335 336 0
-47 -335 336 0
-47 335 -336 0
47 -335 -336 0
46 334 337 0
-46 -334 337 0
-46 334 -337 0
46 -334 -337 0
45 333 338 0
-45 -333 338 0
-45 333 -338 0
45 -333 -338 0
44 332 339 0
-44 -332 339 0
-44 332 -339 0
44 -332 -339 0
-338 -339 340 0
338 -340 0
339 -340 0
-337 -340 341 0
337 -341 0
340 -341 0
-336 -341 342 0
336 -342 0
341 -342 0
-314 -342 343 0
314 -343 0
342 -343 0
-347 348 0
347 -348 0
-346 349 0
346 -349 0
345 350 0
-345 -350 0
344 351 0
-344 -351 0
-350 -351 352 0
350 -352 0
351 -352 0
-349 -352 353 0
349 -353 0
352 -353 0
-348 -353 354 0
348 -354 0
353 -354 0
-343 -354 355 0
343 -355 0
354 -355 0
-335 356 0
335 -356 0
334 357 0
-334 -357 0
-333 358 0
333 -358 0
332 359 0
-332 -359 0
-358 -359 360 0
358 -360 0
359 -360 0
-357 -360 361 0
357 -361 0
360 -361 0
-356 -361 362 0
356 -362 0
361 -362 0
-315 -362 363 0
315 -363 0
362 -363 0
59 347 364 0
-59 -347 364 0
-59 347 -364 0
59 -347 -364 0
58 346 365 0
-58 -346 365 0
-58 346 -365 0
58 -346 -365 0
57 345 366 0
-57 -345 366 0
-57 345 -366 0
57 -345 -366 0
56 344 367 0
-56 -344 367 0
-56 344 -367 0
56 -344 -367 0
-366 -367 368 0
366 -368 0
367 -368 0
-365 -368 369 0
365 -369 0
368 -369 0
-364 -369 370 0
364 -370 0
369 -370 0
-363 -370 371 0
363 -371 0
370 -371 0
355 371 -372 0
-355 372 0
-371 372 0
347 373 0
-347 -373 0
346 374 0
-346 -374 0
345 375 0
-345 -375 0
344 376 0
-344 -376 0
-375 -376 377 0
375 -377 0
376 -377 0
-374 -377 378 0
374 -378 0
377 -378 0
-373 -378 379 0
373 -379 0
378 -379 0
-316 -379 380 0
316 -380 0
379 -380 0
47 335 381 0
-47 -335 381 0
-47 335 -381 0
47 -335 -381 0
46 334 382 0
-46 -334 382 0
-46 334 -382 0
46 -334 -382 0
45 333 383 0
-45 -333 383 0
-45 333 -383 0
45 -333 -383 0
44 332 384 0
-44 -332 384 0
-44 332 -384 0
44 -332 -384 0
-383 -384 385 0
383 -385 0
384 -385 0
-382 -385 386 0
382 -386 0
385 -386 0
-381 -386 387 0
381 -387 0
386 -387 0
-380 -387 388 0
380 -388 0
387 -388 0
372 388 -389 0
-372 389 0
-388 389 0
59 347 390 0
-59 -347 390 0
-59 347 -390 0
59 -347 -390 0
58 346 391 0
-58 -346 391 0
-58 346 -391 0
58 -346 -391 0
57 345 392 0
-57 -345 392 0
-57 345 -392 0
57 -345 -392 0
56 344 393 0
-56 -344 393 0
-56 344 -393 0
56 -344 -393 0
-392 -393 394 0
392 -394 0
393 -394 0
-391 -394 395 0
391 -395 0
394 -395 0
-390 -395 396 0
390 -396 0
395 -396 0
-317 -396 397 0
317 -397 0
396 -397 0
335 398 0
-335 -398 0
334 399 0
-334 -399 0
333 400 0
-333 -400 0
332 401 0
-332 -401 0
-400 -401 402 0
400 -402 0
401 -402 0
-399 -402 403 0
399 -403 0
402 -403 0
-398 -403 404 0
398 -404 0
403 -404 0
-397 -404 405 0
397 -405 0
404 -405 0
389 405 -406 0
-389 406 0
-405 406 0
-47 59 407 0
47 -59 407 0
-47 -59 -407 0
47 59 -407 0
-47 -59 408 0
47 -408 0
59 -408 0
-46 58 409 0
46 -58 409 0
-46 -58 -409 0
46 58 -409 0
408 -409 410 0
-408 409 410 0
-408 -409 -410 0
408 409 -410 0
-408 -409 411 0
409 -411 0
408 -411 0
-46 -58 412 0
46 -412 0
58 -412 0
411 412 -413 0
-411 413 0
-412 413 0
-45 57 414 0
45 -57 414 0
-45 -57 -414 0
45 57 -414 0
413 -414 415 0
-413 414 415 0
-413 -414 -415 0
413 414 -415 0
-413 -414 416 0
414 -416 0
413 -416 0
-45 -57 417 0
45 -417 0
57 -417 0
416 417 -418 0
-416 418 0
-417 418 0
-44 56 419 0
44 -56 419 0
-44 -56 -419 0
44 56 -419 0
418 -419 420 0
-418 419 420 0
-418 -419 -420 0
418 419 -420 0
-418 -419 421 0
419 -421 0
418 -421 0
-44 -56 422 0
44 -422 0
56 -422 0
421 422 -423 0
-421 423 0
-422 423 0
423 424 0
-423 -424 0
420 425 0
-420 -425 0
-424 -425 426 0
424 -426 0
425 -426 0
-415 427 0
415 -427 0
415 -426 428 0
426 -428 0
-415 -428 0
-426 -427 429 0
426 -429 0
427 -429 0
410 430 0
-410 -430 0
-429 -430 431 0
429 -431 0
430 -431 0
407 -431 432 0
431 -432 0
-407 -432 0
428 432 -433 0
-432 433 0
-428 433 0
-407 -433 434 0
433 -434 0
407 -434 0
-433 434 -435 0
-434 435 0
433 435 0
-410 -433 436 0
433 -436 0
410 -436 0
-415 -433 437 0
433 -437 0
415 -437 0
-433 437 -438 0
-437 438 0
433 438 0
-420 -433 439 0
433 -439 0
420 -439 0
-423 -433 440 0
433 -440 0
423 -440 0
335 435 441 0
-335 -435 441 0
335 -435 -441 0
-335 435 -441 0
334 436 442 0
-334 -436 442 0
334 -436 -442 0
-334 436 -442 0
333 438 443 0
-333 -438 443 0
333 -438 -443 0
-333 438 -443 0
332 439 444 0
-332 -439 444 0
332 -439 -444 0
-332 439 -444 0
440 445 0
-440 -445 0
-444 -445 446 0
444 -446 0
445 -446 0
-443 -446 447 0
443 -447 0
446 -447 0
-442 -447 448 0
442 -448 0
447 -448 0
-441 -448 449 0
441 -449 0
448 -449 0
-318 -449 450 0
318 -450 0
449 -450 0
-47 -335 451 0
47 335 451 0
47 -335 -451 0
-47 335 -451 0
47 -335 452 0
335 -452 0
-47 -452 0
451 452 -453 0
-451 453 0
-452 453 0
-46 -334 454 0
46 334 454 0
46 -334 -454 0
-46 334 -454 0
453 -454 455 0
-453 454 455 0
-453 -454 -455 0
453 454 -455 0
-453 -454 456 0
454 -456 0
453 -456 0
46 -334 457 0
334 -457 0
-46 -457 0
456 457 -458 0
-456 458 0
-457 458 0
-45 -333 459 0
45 333 459 0
45 -333 -459 0
-45 333 -459 0
458 -459 460 0
-458 459 460 0
-458 -459 -460 0
458 459 -460 0
-458 -459 461 0
459 -461 0
458 -461 0
45 -333 462 0
333 -462 0
-45 -462 0
461 462 -463 0
-461 463 0
-462 463 0
-44 -332 464 0
44 332 464 0
44 -332 -464 0
-44 332 -464 0
463 -464 465 0
-463 464 465 0
-463 -464 -465 0
463 464 -465 0
-463 -464 466 0
464 -466 0
463 -466 0
44 -332 467 0
332 -467 0
-44 -467 0
466 467 -468 0
-466 468 0
-467 468 0
-59 451 469 0
59 -451 469 0
-59 -451 -469 0
59 451 -469 0
-59 -451 470 0
59 -470 0
451 -470 0
469 470 -471 0
-469 471 0
-470 471 0
-58 -455 472 0
58 455 472 0
-58 455 -472 0
58 -455 -472 0
471 -472 473 0
-471 472 473 0
-471 -472 -473 0
471 472 -473 0
-471 -472 474 0
472 -474 0
471 -474 0
-58 455 475 0
58 -475 0
-455 -475 0
474 475 -476 0
-474 476 0
-475 476 0
-57 -460 477 0
57 460 477 0
-57 460 -477 0
57 -460 -477 0
476 -477 478 0
-476 477 478 0
-476 -477 -478 0
476 477 -478 0
-476 -477 479 0
477 -479 0
476 -479 0
-57 460 480 0
57 -480 0
-460 -480 0
479 480 -481 0
-479 481 0
-480 481 0
-56 -465 482 0
56 465 482 0
-56 465 -482 0
56 -465 -482 0
481 -482 483 0
-481 482 483 0
-481 -482 -483 0
481 482 -483 0
-481 -482 484 0
482 -484 0
481 -484 0
-56 465 485 0
56 -485 0
-465 -485 0
484 485 -486 0
-484 486 0
-485 486 0
-468 486 487 0
468 -486 487 0
-468 -486 -487 0
468 486 -487 0
-468 -486 488 0
468 -488 0
486 -488 0
-468 488 489 0
468 -488 489 0
-468 -488 -489 0
468 488 -489 0
-468 -488 490 0
468 -490 0
488 -490 0
347 -469 491 0
-347 469 491 0
347 469 -491 0
-347 -469 -491 0
346 473 492 0
-346 -473 492 0
346 -473 -492 0
-346 473 -492 0
345 478 493 0
-345 -478 493 0
345 -478 -493 0
-345 478 -493 0
344 483 494 0
-344 -483 494 0
344 -483 -494 0
-344 483 -494 0
487 495 0
-487 -495 0
489 496 0
-489 -496 0
-495 -496 497 0
495 -497 0
496 -497 0
-494 -497 498 0
494 -498 0
497 -498 0
-493 -498 499 0
493 -499 0
498 -499 0
-492 -499 500 0
492 -500 0
499 -500 0
-491 -500 501 0
491 -501 0
500 -501 0
-450 -501 502 0
450 -502 0
501 -502 0
406 502 -503 0
-406 503 0
-502 503 0
-47 59 504 0
47 -59 504 0
-47 -59 -504 0
47 59 -504 0
-47 -59 505 0
47 -505 0
59 -505 0
-46 58 506 0
46 -58 506 0
-46 -58 -506 0
46 58 -506 0
505 -506 507 0
-505 506 507 0
-505 -506 -507 0
505 506 -507 0
-505 -506 508 0
506 -508 0
505 -508 0
-46 -58 509 0
46 -509 0
58 -509 0
508 509 -510 0
-508 510 0
-509 510 0
-45 57 511 0
45 -57 511 0
-45 -57 -511 0
45 57 -511 0
510 -511 512 0
-510 511 512 0
-510 -511 -512 0
510 511 -512 0
-510 -511 513 0
511 -513 0
510 -513 0
-45 -57 514 0
45 -514 0
57 -514 0
513 514 -515 0
-513 515 0
-514 515 0
-44 56 516 0
44 -56 516 0
-44 -56 -516 0
44 56 -516 0
515 -516 517 0
-515 516 517 0
-515 -516 -517 0
515 516 -517 0
-515 -516 518 0
516 -518 0
515 -518 0
-44 -56 519 0
44 -519 0
56 -519 0
518 519 -520 0
-518 520 0
-519 520 0
520 521 0
-520 -521 0
517 522 0
-517 -522 0
-521 -522 523 0
521 -523 0
522 -523 0
512 524 0
-512 -524 0
-523 -524 525 0
523 -525 0
524 -525 0
-507 526 0
507 -526 0
507 -525 527 0
525 -527 0
-507 -527 0
-525 -526 528 0
525 -528 0
526 -528 0
504 -528 529 0
528 -529 0
-504 -529 0
527 529 -530 0
-529 530 0
-527 530 0
-504 -530 531 0
530 -531 0
504 -531 0
-530 531 -532 0
-531 532 0
530 532 0
-507 -530 533 0
530 -533 0
507 -533 0
-530 533 -534 0
-533 534 0
530 534 0
-512 -530 535 0
530 -535 0
512 -535 0
-517 -530 536 0
530 -536 0
517 -536 0
-520 -530 537 0
530 -537 0
520 -537 0
347 532 538 0
-347 -532 538 0
347 -532 -538 0
-347 532 -538 0
346 534 539 0
-346 -534 539 0
346 -534 -539 0
-346 534 -539 0
345 535 540 0
-345 -535 540 0
345 -535 -540 0
-345 535 -540 0
344 536 541 0
-344 -536 541 0
344 -536 -541 0
-344 536 -541 0
537 542 0
-537 -542 0
-541 -542 543 0
541 -543 0
542 -543 0
-540 -543 544 0
540 -544 0
543 -544 0
-539 -544 545 0
539 -545 0
544 -545 0
-538 -545 546 0
538 -546 0
545 -546 0
-319 -546 547 0
319 -547 0
546 -547 0
-59 -347 548 0
59 347 548 0
59 -347 -548 0
-59 347 -548 0
59 -347 549 0
347 -549 0
-59 -549 0
548 549 -550 0
-548 550 0
-549 550 0
-58 -346 551 0
58 346 551 0
58 -346 -551 0
-58 346 -551 0
550 -551 552 0
-550 551 552 0
-550 -551 -552 0
550 551 -552 0
-550 -551 553 0
551 -553 0
550 -553 0
58 -346 554 0
346 -554 0
-58 -554 0
553 554 -555 0
-553 555 0
-554 555 0
-57 -345 556 0
57 345 556 0
57 -345 -556 0
-57 345 -556 0
555 -556 557 0
-555 556 557 0
-555 -556 -557 0
555 556 -557 0
-555 -556 558 0
556 -558 0
555 -558 0
57 -345 559 0
345 -559 0
-57 -559 0
558 559 -560 0
-558 560 0
-559 560 0
-56 -344 561 0
56 344 561 0
56 -344 -561 0
-56 344 -561 0
560 -561 562 0
-560 561 562 0
-560 -561 -562 0
560 561 -562 0
-560 -561 563 0
561 -563 0
560 -563 0
56 -344 564 0
344 -564 0
-56 -564 0
563 564 -565 0
-563 565 0
-564 565 0
-47 548 566 0
47 -548 566 0
-47 -548 -566 0
47 548 -566 0
-47 -548 567 0
47 -567 0
548 -567 0
566 567 -568 0
-566 568 0
-567 568 0
-46 -552 569 0
46 552 569 0
-46 552 -569 0
46 -552 -569 0
568 -569 570 0
-568 569 570 0
-568 -569 -570 0
568 569 -570 0
-568 -569 571 0
569 -571 0
568 -571 0
-46 552 572 0
46 -572 0
-552 -572 0
571 572 -573 0
-571 573 0
-572 573 0
-45 -557 574 0
45 557 574 0
-45 557 -574 0
45 -557 -574 0
573 -574 575 0
-573 574 575 0
-573 -574 -575 0
573 574 -575 0
-573 -574 576 0
574 -576 0
573 -576 0
-45 557 577 0
45 -577 0
-557 -577 0
576 577 -578 0
-576 578 0
-577 578 0
-44 -562 579 0
44 562 579 0
-44 562 -579 0
44 -562 -579 0
578 -579 580 0
-578 579 580 0
-578 -579 -580 0
578 579 -580 0
-578 -579 581 0
579 -581 0
578 -581 0
-44 562 582 0
44 -582 0
-562 -582 0
581 582 -583 0
-581 583 0
-582 583 0
-565 583 584 0
565 -583 584 0
-565 -583 -584 0
565 583 -584 0
-565 -583 585 0
565 -585 0
583 -585 0
-565 585 586 0
565 -585 586 0
-565 -585 -586 0
565 585 -586 0
-565 -585 587 0
565 -587 0
585 -587 0
335 -566 588 0
-335 566 588 0
335 566 -588 0
-335 -566 -588 0
334 570 589 0
-334 -570 589 0
334 -570 -589 0
-334 570 -589 0
333 575 590 0
-333 -575 590 0
333 -575 -590 0
-333 575 -590 0
332 580 591 0
-332 -580 591 0
332 -580 -591 0
-332 580 -591 0
584 592 0
-584 -592 0
586 593 0
-586 -593 0
-592 -593 594 0
592 -594 0
593 -594 0
-591 -594 595 0
591 -595 0
594 -595 0
-590 -595 596 0
590 -596 0
595 -596 0
-589 -596 597 0
589 -597 0
596 -597 0
-588 -597 598 0
588 -598 0
597 -598 0
-547 -598 599 0
547 -599 0
598 -599 0
503 599 0
602 603 -608 0
-602 608 0
-603 608 0
-602 -603 0
604 608 -610 0
-608 610 0
-604 610 0
-604 -608 0
605 610 -612 0
-610 612 0
-605 612 0
-605 -610 0
606 612 -614 0
-612 614 0
-606 614 0
-606 -612 0
607 614 0
-607 -614 0
335 623 624 0
-335 -623 624 0
-335 623 -624 0
335 -623 -624 0
334 622 625 0
-334 -622 625 0
-334 622 -625 0
334 -622 -625 0
333 621 626 0
-333 -621 626 0
-333 621 -626 0
333 -621 -626 0
332 620 627 0
-332 -620 627 0
-332 620 -627 0
332 -620 -627 0
-626 -627 628 0
626 -628 0
627 -628 0
-625 -628 629 0
625 -629 0
628 -629 0
-624 -629 630 0
624 -630 0
629 -630 0
-602 -630 631 0
602 -631 0
630 -631 0
-635 636 0
635 -636 0
-634 637 0
634 -637 0
633 638 0
-633 -638 0
632 639 0
-632 -639 0
-638 -639 640 0
638 -640 0
639 -640 0
-637 -640 641 0
637 -641 0
640 -641 0
-636 -641 642 0
636 -642 0
641 -642 0
-631 -642 643 0
631 -643 0
642 -643 0
-623 644 0
623 -644 0
622 645 0
-622 -645 0
-621 646 0
621 -646 0
620 647 0
-620 -647 0
-646 -647 648 0
646 -648 0
647 -648 0
-645 -648 649 0
645 -649 0
648 -649 0
-644 -649 650 0
644 -650 0
649 -650 0
-603 -650 651 0
603 -651 0
650 -651 0
347 635 652 0
-347 -635 652 0
-347 635 -652 0
347 -635 -652 0
346 634 653 0
-346 -634 653 0
-346 634 -653 0
346 -634 -653 0
345 633 654 0
-345 -633 654 0
-345 633 -654 0
345 -633 -654 0
344 632 655 0
-344 -632 655 0
-344 632 -655 0
344 -632 -655 0
-654 -655 656 0
654 -656 0
655 -656 0
-653 -656 657 0
653 -657 0
656 -657 0
-652 -657 658 0
652 -658 0
657 -658 0
-651 -658 659 0
651 -659 0
658 -659 0
643 659 -660 0
-643 660 0
-659 660 0
635 661 0
-635 -661 0
634 662 0
-634 -662 0
633 663 0
-633 -663 0
632 664 0
-632 -664 0
-663 -664 665 0
663 -665 0
664 -665 0
-662 -665 666 0
662 -666 0
665 -666 0
-661 -666 667 0
661 -667 0
666 -667 0
-604 -667 668 0
604 -668 0
667 -668 0
335 623 669 0
-335 -623 669 0
-335 623 -669 0
335 -623 -669 0
334 622 670 0
-334 -622 670 0
-334 622 -670 0
334 -622 -670 0
333 621 671 0
-333 -621 671 0
-333 621 -671 0
333 -621 -671 0
332 620 672 0
-332 -620 672 0
-332 620 -672 0
332 -620 -672 0
-671 -672 673 0
671 -673 0
672 -673 0
-670 -673 674 0
670 -674 0
673 -674 0
-669 -674 675 0
669 -675 0
674 -675 0
-668 -675 676 0
668 -676 0
675 -676 0
660 676 -677 0
-660 677 0
-676 677 0
347 635 678 0
-347 -635 678 0
-347 635 -678 0
347 -635 -678 0
346 634 679 0
-346 -634 679 0
-346 634 -679 0
346 -634 -679 0
345 633 680 0
-345 -633 680 0
-345 633 -680 0
345 -633 -680 0
344 632 681 0
-344 -632 681 0
-344 632 -681 0
344 -632 -681 0
-680 -681 682 0
680 -682 0
681 -682 0
-679 -682 683 0
679 -683 0
682 -683 0
-678 -683 684 0
678 -684 0
683 -684 0
-605 -684 685 0
605 -685 0
684 -685 0
623 686 0
-623 -686 0
622 687 0
-622 -687 0
621 688 0
-621 -688 0
620 689 0
-620 -689 0
-688 -689 690 0
688 -690 0
689 -690 0
-687 -690 691 0
687 -691 0
690 -691 0
-686 -691 692 0
686 -692 0
691 -692 0
-685 -692 693 0
685 -693 0
692 -693 0
677 693 -694 0
-677 694 0
-693 694 0
-335 347 695 0
335 -347 695 0
-335 -347 -695 0
335 347 -695 0
-335 -347 696 0
335 -696 0
347 -696 0
-334 346 697 0
334 -346 697 0
-334 -346 -697 0
334 346 -697 0
696 -697 698 0
-696 697 698 0
-696 -697 -698 0
696 697 -698 0
-696 -697 699 0
697 -699 0
696 -699 0
-334 -346 700 0
334 -700 0
346 -700 0
699 700 -701 0
-699 701 0
-700 701 0
-333 345 702 0
333 -345 702 0
-333 -345 -702 0
333 345 -702 0
701 -702 703 0
-701 702 703 0
-701 -702 -703 0
701 702 -703 0
-701 -702 704 0
702 -704 0
701 -704 0
-333 -345 705 0
333 -705 0
345 -705 0
704 705 -706 0
-704 706 0
-705 706 0
-332 344 707 0
332 -344 707 0
-332 -344 -707 0
332 344 -707 0
706 -707 708 0
-706 707 708 0
-706 -707 -708 0
706 707 -708 0
-706 -707 709 0
707 -709 0
706 -709 0
-332 -344 710 0
332 -710 0
344 -710 0
709 710 -711 0
-709 711 0
-710 711 0
711 712 0
-711 -712 0
708 713 0
-708 -713 0
-712 -713 714 0
712 -714 0
713 -714 0
-703 715 0
703 -715 0
703 -714 716 0
714 -716 0
-703 -716 0
-714 -715 717 0
714 -717 0
715 -717 0
698 718 0
-698 -718 0
-717 -718 719 0
717 -719 0
718 -719 0
695 -719 720 0
719 -720 0
-695 -720 0
716 720 -721 0
-720 721 0
-716 721 0
-695 -721 722 0
721 -722 0
695 -722 0
-721 722 -723 0
-722 723 0
721 723 0
-698 -721 724 0
721 -724 0
698 -724 0
-703 -721 725 0
721 -725 0
703 -725 0
-721 725 -726 0
-725 726 0
721 726 0
-708 -721 727 0
721 -727 0
708 -727 0
-711 -721 728 0
721 -728 0
711 -728 0
623 723 729 0
-623 -723 729 0
623 -723 -729 0
-623 723 -729 0
622 724 730 0
-622 -724 730 0
622 -724 -730 0
-622 724 -730 0
621 726 731 0
-621 -726 731 0
621 -726 -731 0
-621 726 -731 0
620 727 732 0
-620 -727 732 0
620 -727 -732 0
-620 727 -732 0
728 733 0
-728 -733 0
-732 -733 734 0
732 -734 0
733 -734 0
-731 -734 735 0
731 -735 0
734 -735 0
-730 -735 736 0
730 -736 0
735 -736 0
-729 -736 737 0
729 -737 0
736 -737 0
-606 -737 738 0
606 -738 0
737 -738 0
-335 -623 739 0
335 623 739 0
335 -623 -739 0
-335 623 -739 0
335 -623 740 0
623 -740 0
-335 -740 0
739 740 -741 0
-739 741 0
-740 741 0
-334 -622 742 0
334 622 742 0
334 -622 -742 0
-334 622 -742 0
741 -742 743 0
-741 742 743 0
-741 -742 -743 0
741 742 -743 0
-741 -742 744 0
742 -744 0
741 -744 0
334 -622 745 0
622 -745 0
-334 -745 0
744 745 -746 0
-744 746 0
-745 746 0
-333 -621 747 0
333 621 747 0
333 -621 -747 0
-333 621 -747 0
746 -747 748 0
-746 747 748 0
-746 -747 -748 0
746 747 -748 0
-746 -747 749 0
747 -749 0
746 -749 0
333 -621 750 0
621 -750 0
-333 -750 0
749 750 -751 0
-749 751 0
-750 751 0
-332 -620 752 0
332 620 752 0
332 -620 -752 0
-332 620 -752 0
751 -752 753 0
-751 752 753 0
-751 -752 -753 0
751 752 -753 0
-751 -752 754 0
752 -754 0
751 -754 0
332 -620 755 0
620 -755 0
-332 -755 0
754 755 -756 0
-754 756 0
-755 756 0
-347 739 757 0
347 -739 757 0
-347 -739 -757 0
347 739 -757 0
-347 -739 758 0
347 -758 0
739 -758 0
757 758 -759 0
-757 759 0
-758 759 0
-346 -743 760 0
346 743 760 0
-346 743 -760 0
346 -743 -760 0
759 -760 761 0
-759 760 761 0
-759 -760 -761 0
759 760 -761 0
-759 -760 762 0
760 -762 0
759 -762 0
-346 743 763 0
346 -763 0
-743 -763 0
762 763 -764 0
-762 764 0
-763 764 0
-345 -748 765 0
345 748 765 0
-345 748 -765 0
345 -748 -765 0
764 -765 766 0
-764 765 766 0
-764 -765 -766 0
764 765 -766 0
-764 -765 767 0
765 -767 0
764 -767 0
-345 748 768 0
345 -768 0
-748 -768 0
767 768 -769 0
-767 769 0
-768 769 0
-344 -753 770 0
344 753 770 0
-344 753 -770 0
344 -753 -770 0
769 -770 771 0
-769 770 771 0
-769 -770 -771 0
769 770 -771 0
-769 -770 772 0
770 -772 0
769 -772 0
-344 753 773 0
344 -773 0
-753 -773 0
772 773 -774 0
-772 774 0
-773 774 0
-756 774 775 0
756 -774 775 0
-756 -774 -775 0
756 774 -775 0
-756 -774 776 0
756 -776 0
774 -776 0
-756 776 777 0
756 -776 777 0
-756 -776 -777 0
756 776 -777 0
-756 -776 778 0
756 -778 0
776 -778 0
635 -757 779 0
-635 757 779 0
635 757 -779 0
-635 -757 -779 0
634 761 780 0
-634 -761 780 0
634 -761 -780 0
-634 761 -780 0
633 766 781 0
-633 -766 781 0
633 -766 -781 0
-633 766 -781 0
632 771 782 0
-632 -771 782 0
632 -771 -782 0
-632 771 -782 0
775 783 0
-775 -783 0
777 784 0
-777 -784 0
-783 -784 785 0
783 -785 0
784 -785 0
-782 -785 786 0
782 -786 0
785 -786 0
-781 -786 787 0
781 -787 0
786 -787 0
-780 -787 788 0
780 -788 0
787 -788 0
-779 -788 789 0
779 -789 0
788 -789 0
-738 -789 790 0
738 -790 0
789 -790 0
694 790 -791 0
-694 791 0
-790 791 0
-335 347 792 0
335 -347 792 0
-335 -347 -792 0
335 347 -792 0
-335 -347 793 0
335 -793 0
347 -793 0
-334 346 794 0
334 -346 794 0
-334 -346 -794 0
334 346 -794 0
793 -794 795 0
-793 794 795 0
-793 -794 -795 0
793 794 -795 0
-793 -794 796 0
794 -796 0
793 -796 0
-334 -346 797 0
334 -797 0
346 -797 0
796 797 -798 0
-796 798 0
-797 798 0
-333 345 799 0
333 -345 799 0
-333 -345 -799 0
333 345 -799 0
798 -799 800 0
-798 799 800 0
-798 -799 -800 0
798 799 -800 0
-798 -799 801 0
799 -801 0
798 -801 0
-333 -345 802 0
333 -802 0
345 -802 0
801 802 -803 0
-801 803 0
-802 803 0
-332 344 804 0
332 -344 804 0
-332 -344 -804 0
332 344 -804 0
803 -804 805 0
-803 804 805 0
-803 -804 -805 0
803 804 -805 0
-803 -804 806 0
804 -806 0
803 -806 0
-332 -344 807 0
332 -807 0
344 -807 0
806 807 -808 0
-806 808 0
-807 808 0
808 809 0
-808 -809 0
805 810 0
-805 -810 0
-809 -810 811 0
809 -811 0
810 -811 0
800 812 0
-800 -812 0
-811 -812 813 0
811 -813 0
812 -813 0
-795 814 0
795 -814 0
795 -813 815 0
813 -815 0
-795 -815 0
-813 -814 816 0
813 -816 0
814 -816 0
792 -816 817 0
816 -817 0
-792 -817 0
815 817 -818 0
-817 818 0
-815 818 0
-792 -818 819 0
818 -819 0
792 -819 0
-818 819 -820 0
-819 820 0
818 820 0
-795 -818 821 0
818 -821 0
795 -821 0
-818 821 -822 0
-821 822 0
818 822 0
-800 -818 823 0
818 -823 0
800 -823 0
-805 -818 824 0
818 -824 0
805 -824 0
-808 -818 825 0
818 -825 0
808 -825 0
635 820 826 0
-635 -820 826 0
635 -820 -826 0
-635 820 -826 0
634 822 827 0
-634 -822 827 0
634 -822 -827 0
-634 822 -827 0
633 823 828 0
-633 -823 828 0
633 -823 -828 0
-633 823 -828 0
632 824 829 0
-632 -824 829 0
632 -824 -829 0
-632 824 -829 0
825 830 0
-825 -830 0
-829 -830 831 0
829 -831 0
830 -831 0
-828 -831 832 0
828 -832 0
831 -832 0
-827 -832 833 0
827 -833 0
832 -833 0
-826 -833 834 0
826 -834 0
833 -834 0
-607 -834 835 0
607 -835 0
834 -835 0
-347 -635 836 0
347 635 836 0
347 -635 -836 0
-347 635 -836 0
347 -635 837 0
635 -837 0
-347 -837 0
836 837 -838 0
-836 838 0
-837 838 0
-346 -634 839 0
346 634 839 0
346 -634 -839 0
-346 634 -839 0
838 -839 840 0
-838 839 840 0
-838 -839 -840 0
838 839 -840 0
-838 -839 841 0
839 -841 0
838 -841 0
346 -634 842 0
634 -842 0
-346 -842 0
841 842 -843 0
-841 843 0
-842 843 0
-345 -633 844 0
345 633 844 0
345 -633 -844 0
-345 633 -844 0
843 -844 845 0
-843 844 845 0
-843 -844 -845 0
843 844 -845 0
-843 -844 846 0
844 -846 0
843 -846 0
345 -633 847 0
633 -847 0
-345 -847 0
846 847 -848 0
-846 848 0
-847 848 0
-344 -632 849 0
344 632 849 0
344 -632 -849 0
-344 632 -849 0
848 -849 850 0
-848 849 850 0
-848 -849 -850 0
848 849 -850 0
-848 -849 851 0
849 -851 0
848 -851 0
344 -632 852 0
632 -852 0
-344 -852 0
851 852 -853 0
-851 853 0
-852 853 0
-335 836 854 0
335 -836 854 0
-335 -836 -854 0
335 836 -854 0
-335 -836 855 0
335 -855 0
836 -855 0
854 855 -856 0
-854 856 0
-855 856 0
-334 -840 857 0
334 840 857 0
-334 840 -857 0
334 -840 -857 0
856 -857 858 0
-856 857 858 0
-856 -857 -858 0
856 857 -858 0
-856 -857 859 0
857 -859 0
856 -859 0
-334 840 860 0
334 -860 0
-840 -860 0
859 860 -861 0
-859 861 0
-860 861 0
-333 -845 862 0
333 845 862 0
-333 845 -862 0
333 -845 -862 0
861 -862 863 0
-861 862 863 0
-861 -862 -863 0
861 862 -863 0
-861 -862 864 0
862 -864 0
861 -864 0
-333 845 865 0
333 -865 0
-845 -865 0
864 865 -866 0
-864 866 0
-865 866 0
-332 -850 867 0
332 850 867 0
-332 850 -867 0
332 -850 -867 0
866 -867 868 0
-866 867 868 0
-866 -867 -868 0
866 867 -868 0
-866 -867 869 0
867 -869 0
866 -869 0
-332 850 870 0
332 -870 0
-850 -870 0
869 870 -871 0
-869 871 0
-870 871 0
-853 871 872 0
853 -871 872 0
-853 -871 -872 0
853 871 -872 0
-853 -871 873 0
853 -873 0
871 -873 0
-853 873 874 0
853 -873 874 0
-853 -873 -874 0
853 873 -874 0
-853 -873 875 0
853 -875 0
873 -875 0
623 -854 876 0
-623 854 876 0
623 854 -876 0
-623 -854 -876 0
622 858 877 0
-622 -858 877 0
622 -858 -877 0
-622 858 -877 0
621 863 878 0
-621 -863 878 0
621 -863 -878 0
-621 863 -878 0
620 868 879 0
-620 -868 879 0
620 -868 -879 0
-620 868 -879 0
872 880 0
-872 -880 0
874 881 0
-874 -881 0
-880 -881 882 0
880 -882 0
881 -882 0
-879 -882 883 0
879 -883 0
882 -883 0
-878 -883 884 0
878 -884 0
883 -884 0
-877 -884 885 0
877 -885 0
884 -885 0
-876 -885 886 0
876 -886 0
885 -886 0
-835 -886 887 0
835 -887 0
886 -887 0
791 887 0
890 891 -896 0
-890 896 0
-891 896 0
-890 -891 0
892 896 -898 0
-896 898 0
-892 898 0
-892 -896 0
893 898 -900 0
-898 900 0
-893 900 0
-893 -898 0
894 900 -902 0
-900 902 0
-894 902 0
-894 -900 0
895 902 0
-895 -902 0
623 911 912 0
-623 -911 912 0
-623 911 -912 0
623 -911 -912 0
622 910 913 0
-622 -910 913 0
-622 910 -913 0
622 -910 -913 0
621 909 914 0
-621 -909 914 0
-621 909 -914 0
621 -909 -914 0
620 908 915 0
-620 -908 915 0
-620 908 -915 0
620 -908 -915 0
-914 -915 916 0
914 -916 0
915 -916 0
-913 -916 917 0
913 -917 0
916 -917 0
-912 -917 918 0
912 -918 0
917 -918 0
-890 -918 919 0
890 -919 0
918 -919 0
-923 924 0
923 -924 0
-922 925 0
922 -925 0
921 926 0
-921 -926 0
920 927 0
-920 -927 0
-926 -927 928 0
926 -928 0
927 -928 0
-925 -928 929 0
925 -929 0
928 -929 0
-924 -929 930 0
924 -930 0
929 -930 0
-919 -930 931 0
919 -931 0
930 -931 0
-911 932 0
911 -932 0
910 933 0
-910 -933 0
-909 934 0
909 -934 0
908 935 0
-908 -935 0
-934 -935 936 0
934 -936 0
935 -936 0
-933 -936 937 0
933 -937 0
936 -937 0
-932 -937 938 0
932 -938 0
937 -938 0
-891 -938 939 0
891 -939 0
938 -939 0
635 923 940 0
-635 -923 940 0
-635 923 -940 0
635 -923 -940 0
634 922 941 0
-634 -922 941 0
-634 922 -941 0
634 -922 -941 0
633 921 942 0
-633 -921 942 0
-633 921 -942 0
633 -921 -942 0
632 920 943 0
-632 -920 943 0
-632 920 -943 0
632 -920 -943 0
-942 -943 944 0
942 -944 0
943 -944 0
-941 -944 945 0
941 -945 0
944 -945 0
-940 -945 946 0
940 -946 0
945 -946 0
-939 -946 947 0
939 -947 0
946 -947 0
931 947 -948 0
-931 948 0
-947 948 0
923 949 0
-923 -949 0
922 950 0
-922 -950 0
921 951 0
-921 -951 0
920 952 0
-920 -952 0
-951 -952 953 0
951 -953 0
952 -953 0
-950 -953 954 0
950 -954 0
953 -954 0
-949 -954 955 0
949 -955 0
954 -955 0
-892 -955 956 0
892 -956 0
955 -956 0
623 911 957 0
-623 -911 957 0
-623 911 -957 0
623 -911 -957 0
622 910 958 0
-622 -910 958 0
-622 910 -958 0
622 -910 -958 0
621 909 959 0
-621 -909 959 0
-621 909 -959 0
621 -909 -959 0
620 908 960 0
-620 -908 960 0
-620 908 -960 0
620 -908 -960 0
-959 -960 961 0
959 -961 0
960 -961 0
-958 -961 962 0
958 -962 0
961 -962 0
-957 -962 963 0
957 -963 0
962 -963 0
-956 -963 964 0
956 -964 0
963 -964 0
948 964 -965 0
-948 965 0
-964 965 0
635 923 966 0
-635 -923 966 0
-635 923 -966 0
635 -923 -966 0
634 922 967 0
-634 -922 967 0
-634 922 -967 0
634 -922 -967 0
633 921 968 0
-633 -921 968 0
-633 921 -968 0
633 -921 -968 0
632 920 969 0
-632 -920 969 0
-632 920 -969 0
632 -920 -969 0
-968 -969 970 0
968 -970 0
969 -970 0
-967 -970 971 0
967 -971 0
970 -971 0
-966 -971 972 0
966 -972 0
971 -972 0
-893 -972 973 0
893 -973 0
972 -973 0
911 974 0
-911 -974 0
910 975 0
-910 -975 0
909 976 0
-909 -976 0
908 977 0
-908 -977 0
-976 -977 978 0
976 -978 0
977 -978 0
-975 -978 979 0
975 -979 0
978 -979 0
-974 -979 980 0
974 -980 0
979 -980 0
-973 -980 981 0
973 -981 0
980 -981 0
965 981 -982 0
-965 982 0
-981 982 0
-623 635 983 0
623 -635 983 0
-623 -635 -983 0
623 635 -983 0
-623 -635 984 0
623 -984 0
635 -984 0
-622 634 985 0
622 -634 985 0
-622 -634 -985 0
622 634 -985 0
984 -985 986 0
-984 985 986 0
-984 -985 -986 0
984 985 -986 0
-984 -985 987 0
985 -987 0
984 -987 0
-622 -634 988 0
622 -988 0
634 -988 0
987 988 -989 0
-987 989 0
-988 989 0
-621 633 990 0
621 -633 990 0
-621 -633 -990 0
621 633 -990 0
989 -990 991 0
-989 990 991 0
-989 -990 -991 0
989 990 -991 0
-989 -990 992 0
990 -992 0
989 -992 0
-621 -633 993 0
621 -993 0
633 -993 0
992 993 -994 0
-992 994 0
-993 994 0
-620 632 995 0
620 -632 995 0
-620 -632 -995 0
620 632 -995 0
994 -995 996 0
-994 995 996 0
-994 -995 -996 0
994 995 -996 0
-994 -995 997 0
995 -997 0
994 -997 0
-620 -632 998 0
620 -998 0
632 -998 0
997 998 -999 0
-997 999 0
-998 999 0
999 1000 0
-999 -1000 0
996 1001 0
-996 -1001 0
-1000 -1001 1002 0
1000 -1002 0
1001 -1002 0
-991 1003 0
991 -1003 0
991 -1002 1004 0
1002 -1004 0
-991 -1004 0
-1002 -1003 1005 0
1002 -1005 0
1003 -1005 0
986 1006 0
-986 -1006 0
-1005 -1006 1007 0
1005 -1007 0
1006 -1007 0
983 -1007 1008 0
1007 -1008 0
-983 -1008 0
1004 1008 -1009 0
-1008 1009 0
-1004 1009 0
-983 -1009 1010 0
1009 -1010 0
983 -1010 0
-1009 1010 -1011 0
-1010 1011 0
1009 1011 0
-986 -1009 1012 0
1009 -1012 0
986 -1012 0
-991 -1009 1013 0
1009 -1013 0
991 -1013 0
-1009 1013 -1014 0
-1013 1014 0
1009 1014 0
-996 -1009 1015 0
1009 -1015 0
996 -1015 0
-999 -1009 1016 0
1009 -1016 0
999 -1016 0
911 1011 1017 0
-911 -1011 1017 0
911 -1011 -1017 0
-911 1011 -1017 0
910 1012 1018 0
-910 -1012 1018 0
910 -1012 -1018 0
-910 1012 -1018 0
909 1014 1019 0
-909 -1014 1019 0
909 -1014 -1019 0
-909 1014 -1019 0
908 1015 1020 0
-908 -1015 1020 0
908 -1015 -1020 0
-908 1015 -1020 0
1016 1021 0
-1016 -1021 0
-1020 -1021 1022 0
1020 -1022 0
1021 -1022 0
-1019 -1022 1023 0
1019 -1023 0
1022 -1023 0
-1018 -1023 1024 0
1018 -1024 0
1023 -1024 0
-1017 -1024 1025 0
1017 -1025 0
1024 -1025 0
-894 -1025 1026 0
894 -1026 0
1025 -1026 0
-623 -911 1027 0
623 911 1027 0
623 -911 -1027 0
-623 911 -1027 0
623 -911 1028 0
911 -1028 0
-623 -1028 0
1027 1028 -1029 0
-1027 1029 0
-1028 1029 0
-622 -910 1030 0
622 910 1030 0
622 -910 -1030 0
-622 910 -1030 0
1029 -1030 1031 0
-1029 1030 1031 0
-1029 -1030 -1031 0
1029 1030 -1031 0
-1029 -1030 1032 0
1030 -1032 0
1029 -1032 0
622 -910 1033 0
910 -1033 0
-622 -1033 0
1032 1033 -1034 0
-1032 1034 0
-1033 1034 0
-621 -909 1035 0
621 909 1035 0
621 -909 -1035 0
-621 909 -1035 0
1034 -1035 1036 0
-1034 1035 1036 0
-1034 -1035 -1036 0
1034 1035 -1036 0
-1034 -1035 1037 0
1035 -1037 0
1034 -1037 0
621 -909 1038 0
909 -1038 0
-621 -1038 0
1037 1038 -1039 0
-1037 1039 0
-1038 1039 0
-620 -908 1040 0
620 908 1040 0
620 -908 -1040 0
-620 908 -1040 0
1039 -1040 1041 0
-1039 1040 1041 0
-1039 -1040 -1041 0
1039 1040 -1041 0
-1039 -1040 1042 0
1040 -1042 0
1039 -1042 0
620 -908 1043 0
908 -1043 0
-620 -1043 0
1042 1043 -1044 0
-1042 1044 0
-1043 1044 0
-635 1027 1045 0
635 -1027 1045 0
-635 -1027 -1045 0
635 1027 -1045 0
-635 -1027 1046 0
635 -1046 0
1027 -1046 0
1045 1046 -1047 0
-1045 1047 0
-1046 1047 0
-634 -1031 1048 0
634 1031 1048 0
-634 1031 -1048 0
634 -1031 -1048 0
1047 -1048 1049 0
-1047 1048 1049 0
-1047 -1048 -1049 0
1047 1048 -1049 0
-1047 -1048 1050 0
1048 -1050 0
1047 -1050 0
-634 1031 1051 0
634 -1051 0
-1031 -1051 0
1050 1051 -1052 0
-1050 1052 0
-1051 1052 0
-633 -1036 1053 0
633 1036 1053 0
-633 1036 -1053 0
633 -1036 -1053 0
1052 -1053 1054 0
-1052 1053 1054 0
-1052 -1053 -1054 0
1052 1053 -1054 0
-1052 -1053 1055 0
1053 -1055 0
1052 -1055 0
-633 1036 1056 0
633 -1056 0
-1036 -1056 0
1055 1056 -1057 0
-1055 1057 0
-1056 1057 0
-632 -1041 1058 0
632 1041 1058 0
-632 1041 -1058 0
632 -1041 -1058 0
1057 -1058 1059 0
-1057 1058 1059 0
-1057 -1058 -1059 0
1057 1058 -1059 0
-1057 -1058 1060 0
1058 -1060 0
1057 -1060 0
-632 1041 1061 0
632 -1061 0
-1041 -1061 0
1060 1061 -1062 0
-1060 1062 0
-1061 1062 0
-1044 1062 1063 0
1044 -1062 1063 0
-1044 -1062 -1063 0
1044 1062 -1063 0
-1044 -1062 1064 0
1044 -1064 0
1062 -1064 0
-1044 1064 1065 0
1044 -1064 1065 0
-1044 -1064 -1065 0
1044 1064 -1065 0
-1044 -1064 1066 0
1044 -1066 0
1064 -1066 0
923 -1045 1067 0
-923 1045 1067 0
923 1045 -1067 0
-923 -1045 -1067 0
922 1049 1068 0
-922 -1049 1068 0
922 -1049 -1068 0
-922 1049 -1068 0
921 1054 1069 0
-921 -1054 1069 0
921 -1054 -1069 0
-921 1054 -1069 0
920 1059 1070 0
-920 -1059 1070 0
920 -1059 -1070 0
-920 1059 -1070 0
1063 1071 0
-1063 -1071 0
1065 1072 0
-1065 -1072 0
-1071 -1072 1073 0
1071 -1073 0
1072 -1073 0
-1070 -1073 1074 0
1070 -1074 0
1073 -1074 0
-1069 -1074 1075 0
1069 -1075 0
1074 -1075 0
-1068 -1075 1076 0
1068 -1076 0
1075 -1076 0
-1067 -1076 1077 0
1067 -1077 0
1076 -1077 0
-1026 -1077 1078 0
1026 -1078 0
1077 -1078 0
982 1078 -1079 0
-982 1079 0
-1078 1079 0
-623 635 1080 0
623 -635 1080 0
-623 -635 -1080 0
623 635 -1080 0
-623 -635 1081 0
623 -1081 0
635 -1081 0
-622 634 1082 0
622 -634 1082 0
-622 -634 -1082 0
622 634 -1082 0
1081 -1082 1083 0
-1081 1082 1083 0
-1081 -1082 -1083 0
1081 1082 -1083 0
-1081 -1082 1084 0
1082 -1084 0
1081 -1084 0
-622 -634 1085 0
622 -1085 0
634 -1085 0
1084 1085 -1086 0
-1084 1086 0
-1085 1086 0
-621 633 1087 0
621 -633 1087 0
-621 -633 -1087 0
621 633 -1087 0
1086 -1087 1088 0
-1086 1087 1088 0
-1086 -1087 -1088 0
1086 1087 -1088 0
-1086 -1087 1089 0
1087 -1089 0
1086 -1089 0
-621 -633 1090 0
621 -1090 0
633 -1090 0
1089 1090 -1091 0
-1089 1091 0
-1090 1091 0
-620 632 1092 0
620 -632 1092 0
-620 -632 -1092 0
620 632 -1092 0
1091 -1092 1093 0
-1091 1092 1093 0
-1091 -1092 -1093 0
1091 1092 -1093 0
-1091 -1092 1094 0
1092 -1094 0
1091 -1094 0
-620 -632 1095 0
620 -1095 0
632 -1095 0
1094 1095 -1096 0
-1094 1096 0
-1095 1096 0
1096 1097 0
-1096 -1097 0
1093 1098 0
-1093 -1098 0
-1097 -1098 1099 0
1097 -1099 0
1098 -1099 0
1088 1100 0
-1088 -1100 0
-1099 -1100 1101 0
1099 -1101 0
1100 -1101 0
-1083 1102 0
1083 -1102 0
1083 -1101 1103 0
1101 -1103 0
-1083 -1103 0
-1101 -1102 1104 0
1101 -1104 0
1102 -1104 0
1080 -1104 1105 0
1104 -1105 0
-1080 -1105 0
1103 1105 -1106 0
-1105 1106 0
-1103 1106 0
-1080 -1106 1107 0
1106 -1107 0
1080 -1107 0
-1106 1107 -1108 0
-1107 1108 0
1106 1108 0
-1083 -1106 1109 0
1106 -1109 0
1083 -1109 0
-1106 1109 -1110 0
-1109 1110 0
1106 1110 0
-1088 -1106 1111 0
1106 -1111 0
1088 -1111 0
-1093 -1106 1112 0
1106 -1112 0
1093 -1112 0
-1096 -1106 1113 0
1106 -1113 0
1096 -1113 0
923 1108 1114 0
-923 -1108 1114 0
923 -1108 -1114 0
-923 1108 -1114 0
922 1110 1115 0
-922 -1110 1115 0
922 -1110 -1115 0
-922 1110 -1115 0
921 1111 1116 0
-921 -1111 1116 0
921 -1111 -1116 0
-921 1111 -1116 0
920 1112 1117 0
-920 -1112 1117 0
920 -1112 -1117 0
-920 1112 -1117 0
1113 1118 0
-1113 -1118 0
-1117 -1118 1119 0
1117 -1119 0
1118 -1119 0
-1116 -1119 1120 0
1116 -1120 0
1119 -1120 0
-1115 -1120 1121 0
1115 -1121 0
1120 -1121 0
-1114 -1121 1122 0
1114 -1122 0
1121 -1122 0
-895 -1122 1123 0
895 -1123 0
1122 -1123 0
-635 -923 1124 0
635 923 1124 0
635 -923 -1124 0
-635 923 -1124 0
635 -923 1125 0
923 -1125 0
-635 -1125 0
1124 1125 -1126 0
-1124 1126 0
-1125 1126 0
-634 -922 1127 0
634 922 1127 0
634 -922 -1127 0
-634 922 -1127 0
1126 -1127 1128 0
-1126 1127 1128 0
-1126 -1127 -1128 0
1126 1127 -1128 0
-1126 -1127 1129 0
1127 -1129 0
1126 -1129 0
634 -922 1130 0
922 -1130 0
-634 -1130 0
1129 1130 -1131 0
-1129 1131 0
-1130 1131 0
-633 -921 1132 0
633 921 1132 0
633 -921 -1132 0
-633 921 -1132 0
1131 -1132 1133 0
-1131 1132 1133 0
-1131 -1132 -1133 0
1131 1132 -1133 0
-1131 -1132 1134 0
1132 -1134 0
1131 -1134 0
633 -921 1135 0
921 -1135 0
-633 -1135 0
1134 1135 -1136 0
-1134 1136 0
-1135 1136 0
-632 -920 1137 0
632 920 1137 0
632 -920 -1137 0
-632 920 -1137 0
1136 -1137 1138 0
-1136 1137 1138 0
-1136 -1137 -1138 0
1136 1137 -1138 0
-1136 -1137 1139 0
1137 -1139 0
1136 -1139 0
632 -920 1140 0
920 -1140 0
-632 -1140 0
1139 1140 -1141 0
-1139 1141 0
-1140 1141 0
-623 1124 1142 0
623 -1124 1142 0
-623 -1124 -1142 0
623 1124 -1142 0
-623 -1124 1143 0
623 -1143 0
1124 -1143 0
1142 1143 -1144 0
-1142 1144 0
-1143 1144 0
-622 -1128 1145 0
622 1128 1145 0
-622 1128 -1145 0
622 -1128 -1145 0
1144 -1145 1146 0
-1144 1145 1146 0
-1144 -1145 -1146 0
1144 1145 -1146 0
-1144 -1145 1147 0
1145 -1147 0
1144 -1147 0
-622 1128 1148 0
622 -1148 0
-1128 -1148 0
1147 1148 -1149 0
-1147 1149 0
-1148 1149 0
-621 -1133 1150 0
621 1133 1150 0
-621 1133 -1150 0
621 -1133 -1150 0
1149 -1150 1151 0
-1149 1150 1151 0
-1149 -1150 -1151 0
1149 1150 -1151 0
-1149 -1150 1152 0
1150 -1152 0
1149 -1152 0
-621 1133 1153 0
621 -1153 0
-1133 -1153 0
1152 1153 -1154 0
-1152 1154 0
-1153 1154 0
-620 -1138 1155 0
620 1138 1155 0
-620 1138 -1155 0
620 -1138 -1155 0
1154 -1155 1156 0
-1154 1155 1156 0
-1154 -1155 -1156 0
1154 1155 -1156 0
-1154 -1155 1157 0
1155 -1157 0
1154 -1157 0
-620 1138 1158 0
620 -1158 0
-1138 -1158 0
1157 1158 -1159 0
-1157 1159 0
-1158 1159 0
-1141 1159 1160 0
1141 -1159 1160 0
-1141 -1159 -1160 0
1141 1159 -1160 0
-1141 -1159 1161 0
1141 -1161 0
1159 -1161 0
-1141 1161 1162 0
1141 -1161 1162 0
-1141 -1161 -1162 0
1141 1161 -1162 0
-1141 -1161 1163 0
1141 -1163 0
1161 -1163 0
911 -1142 1164 0
-911 1142 1164 0
911 1142 -1164 0
-911 -1142 -1164 0
910 1146 1165 0
-910 -1146 1165 0
910 -1146 -1165 0
-910 1146 -1165 0
909 1151 1166 0
-909 -1151 1166 0
909 -1151 -1166 0
-909 1151 -1166 0
908 1156 1167 0
-908 -1156 1167 0
908 -1156 -1167 0
-908 1156 -1167 0
1160 1168 0
-1160 -1168 0
1162 1169 0
-1162 -1169 0
-1168 -1169 1170 0
1168 -1170 0
1169 -1170 0
-1167 -1170 1171 0
1167 -1171 0
1170 -1171 0
-1166 -1171 1172 0
1166 -1172 0
1171 -1172 0
-1165 -1172 1173 0
1165 -1173 0
1172 -1173 0
-1164 -1173 1174 0
1164 -1174 0
1173 -1174 0
-1123 -1174 1175 0
1123 -1175 0
1174 -1175 0
1079 1175 0
1178 1179 -1184 0
-1178 1184 0
-1179 1184 0
-1178 -1179 0
1180 1184 -1186 0
-1184 1186 0
-1180 1186 0
-1180 -1184 0
1181 1186 -1188 0
-1186 1188 0
-1181 1188 0
-1181 -1186 0
1182 1188 -1190 0
-1188 1190 0
-1182 1190 0
-1182 -1188 0
1183 1190 0
-1183 -1190 0
911 1200 0
-911 -1200 0
910 1201 0
-910 -1201 0
-909 1202 0
909 -1202 0
908 1203 0
-908 -1203 0
-1202 -1203 1204 0
1202 -1204 0
1203 -1204 0
-1201 -1204 1205 0
1201 -1205 0
1204 -1205 0
-1200 -1205 1206 0
1200 -1206 0
1205 -1206 0
-1178 -1206 1207 0
1178 -1207 0
1206 -1207 0
-1211 1212 0
1211 -1212 0
-1210 1213 0
1210 -1213 0
1209 1214 0
-1209 -1214 0
1208 1215 0
-1208 -1215 0
-1214 -1215 1216 0
1214 -1216 0
1215 -1216 0
-1213 -1216 1217 0
1213 -1217 0
1216 -1217 0
-1212 -1217 1218 0
1212 -1218 0
1217 -1218 0
-1207 -1218 1219 0
1207 -1219 0
1218 -1219 0
923 1211 1228 0
-923 -1211 1228 0
-923 1211 -1228 0
923 -1211 -1228 0
922 1210 1229 0
-922 -1210 1229 0
-922 1210 -1229 0
922 -1210 -1229 0
921 1209 1230 0
-921 -1209 1230 0
-921 1209 -1230 0
921 -1209 -1230 0
920 1208 1231 0
-920 -1208 1231 0
-920 1208 -1231 0
920 -1208 -1231 0
-1230 -1231 1232 0
1230 -1232 0
1231 -1232 0
-1229 -1232 1233 0
1229 -1233 0
1232 -1233 0
-1228 -1233 1234 0
1228 -1234 0
1233 -1234 0
1219 -1236 0
-1219 1236 0
1211 1237 0
-1211 -1237 0
1210 1238 0
-1210 -1238 0
1209 1239 0
-1209 -1239 0
1208 1240 0
-1208 -1240 0
-1239 -1240 1241 0
1239 -1241 0
1240 -1241 0
-1238 -1241 1242 0
1238 -1242 0
1241 -1242 0
-1237 -1242 1243 0
1237 -1243 0
1242 -1243 0
-1180 -1243 1244 0
1180 -1244 0
1243 -1244 0
911 1245 0
-911 -1245 0
910 1246 0
-910 -1246 0
-909 1247 0
909 -1247 0
908 1248 0
-908 -1248 0
-1247 -1248 1249 0
1247 -1249 0
1248 -1249 0
-1246 -1249 1250 0
1246 -1250 0
1249 -1250 0
-1245 -1250 1251 0
1245 -1251 0
1250 -1251 0
-1244 -1251 1252 0
1244 -1252 0
1251 -1252 0
1236 1252 -1253 0
-1236 1253 0
-1252 1253 0
923 1211 1254 0
-923 -1211 1254 0
-923 1211 -1254 0
923 -1211 -1254 0
922 1210 1255 0
-922 -1210 1255 0
-922 1210 -1255 0
922 -1210 -1255 0
921 1209 1256 0
-921 -1209 1256 0
-921 1209 -1256 0
921 -1209 -1256 0
920 1208 1257 0
-920 -1208 1257 0
-920 1208 -1257 0
920 -1208 -1257 0
-1256 -1257 1258 0
1256 -1258 0
1257 -1258 0
-1255 -1258 1259 0
1255 -1259 0
1258 -1259 0
-1254 -1259 1260 0
1254 -1260 0
1259 -1260 0
-1181 -1260 1261 0
1181 -1261 0
1260 -1261 0
1253 -1270 0
-1253 1270 0
-911 923 1271 0
911 -923 1271 0
-911 -923 -1271 0
911 923 -1271 0
-911 -923 1272 0
911 -1272 0
923 -1272 0
-910 922 1273 0
910 -922 1273 0
-910 -922 -1273 0
910 922 -1273 0
1272 -1273 1274 0
-1272 1273 1274 0
-1272 -1273 -1274 0
1272 1273 -1274 0
-1272 -1273 1275 0
1273 -1275 0
1272 -1275 0
-910 -922 1276 0
910 -1276 0
922 -1276 0
1275 1276 -1277 0
-1275 1277 0
-1276 1277 0
-909 921 1278 0
909 -921 1278 0
-909 -921 -1278 0
909 921 -1278 0
1277 -1278 1279 0
-1277 1278 1279 0
-1277 -1278 -1279 0
1277 1278 -1279 0
-1277 -1278 1280 0
1278 -1280 0
1277 -1280 0
-909 -921 1281 0
909 -1281 0
921 -1281 0
1280 1281 -1282 0
-1280 1282 0
-1281 1282 0
-908 920 1283 0
908 -920 1283 0
-908 -920 -1283 0
908 920 -1283 0
1282 -1283 1284 0
-1282 1283 1284 0
-1282 -1283 -1284 0
1282 1283 -1284 0
-1282 -1283 1285 0
1283 -1285 0
1282 -1285 0
-908 -920 1286 0
908 -1286 0
920 -1286 0
1285 1286 -1287 0
-1285 1287 0
-1286 1287 0
1287 1288 0
-1287 -1288 0
1284 1289 0
-1284 -1289 0
-1288 -1289 1290 0
1288 -1290 0
1289 -1290 0
-1279 1291 0
1279 -1291 0
1279 -1290 1292 0
1290 -1292 0
-1279 -1292 0
-1290 -1291 1293 0
1290 -1293 0
1291 -1293 0
1274 1294 0
-1274 -1294 0
-1293 -1294 1295 0
1293 -1295 0
1294 -1295 0
1271 -1295 1296 0
1295 -1296 0
-1271 -1296 0
1292 1296 -1297 0
-1296 1297 0
-1292 1297 0
-1271 -1297 1298 0
1297 -1298 0
1271 -1298 0
-1297 1298 -1299 0
-1298 1299 0
1297 1299 0
-1274 -1297 1300 0
1297 -1300 0
1274 -1300 0
-1279 -1297 1301 0
1297 -1301 0
1279 -1301 0
-1297 1301 -1302 0
-1301 1302 0
1297 1302 0
-1284 -1297 1303 0
1297 -1303 0
1284 -1303 0
-1287 -1297 1304 0
1297 -1304 0
1287 -1304 0
1299 1305 0
-1299 -1305 0
1300 1306 0
-1300 -1306 0
-1302 1307 0
1302 -1307 0
1303 1308 0
-1303 -1308 0
1304 1309 0
-1304 -1309 0
-1308 -1309 1310 0
1308 -1310 0
1309 -1310 0
-1307 -1310 1311 0
1307 -1311 0
1310 -1311 0
-1306 -1311 1312 0
1306 -1312 0
1311 -1312 0
-1305 -1312 1313 0
1305 -1313 0
1312 -1313 0
-1182 -1313 1314 0
1182 -1314 0
1313 -1314 0
911 1315 0
-911 -1315 0
1315 -1317 0
-1315 1317 0
910 1318 0
-910 -1318 0
1317 -1318 1319 0
-1317 1318 1319 0
-1317 -1318 -1319 0
1317 1318 -1319 0
-1317 -1318 1320 0
1318 -1320 0
1317 -1320 0
1320 -1322 0
-1320 1322 0
-909 1323 0
909 -1323 0
1322 -1323 1324 0
-1322 1323 1324 0
-1322 -1323 -1324 0
1322 1323 -1324 0
-1322 -1323 1325 0
1323 -1325 0
1322 -1325 0
909 1326 0
-909 -1326 0
1325 1326 -1327 0
-1325 1327 0
-1326 1327 0
908 1328 0
-908 -1328 0
1327 -1328 1329 0
-1327 1328 1329 0
-1327 -1328 -1329 0
1327 1328 -1329 0
-1327 -1328 1330 0
1328 -1330 0
1327 -1330 0
1330 -1332 0
-1330 1332 0
-923 1315 1333 0
923 -1315 1333 0
-923 -1315 -1333 0
923 1315 -1333 0
-923 -1315 1334 0
923 -1334 0
1315 -1334 0
1333 1334 -1335 0
-1333 1335 0
-1334 1335 0
-922 -1319 1336 0
922 1319 1336 0
-922 1319 -1336 0
922 -1319 -1336 0
1335 -1336 1337 0
-1335 1336 1337 0
-1335 -1336 -1337 0
1335 1336 -1337 0
-1335 -1336 1338 0
1336 -1338 0
1335 -1338 0
-922 1319 1339 0
922 -1339 0
-1319 -1339 0
1338 1339 -1340 0
-1338 1340 0
-1339 1340 0
-921 -1324 1341 0
921 1324 1341 0
-921 1324 -1341 0
921 -1324 -1341 0
1340 -1341 1342 0
-1340 1341 1342 0
-1340 -1341 -1342 0
1340 1341 -1342 0
-1340 -1341 1343 0
1341 -1343 0
1340 -1343 0
-921 1324 1344 0
921 -1344 0
-1324 -1344 0
1343 1344 -1345 0
-1343 1345 0
-1344 1345 0
-920 -1329 1346 0
920 1329 1346 0
-920 1329 -1346 0
920 -1329 -1346 0
1345 -1346 1347 0
-1345 1346 1347 0
-1345 -1346 -1347 0
1345 1346 -1347 0
-1345 -1346 1348 0
1346 -1348 0
1345 -1348 0
-920 1329 1349 0
920 -1349 0
-1329 -1349 0
1348 1349 -1350 0
-1348 1350 0
-1349 1350 0
-1332 1350 1351 0
1332 -1350 1351 0
-1332 -1350 -1351 0
1332 1350 -1351 0
-1332 -1350 1352 0
1332 -1352 0
1350 -1352 0
-1332 1352 1353 0
1332 -1352 1353 0
-1332 -1352 -1353 0
1332 1352 -1353 0
-1332 -1352 1354 0
1332 -1354 0
1352 -1354 0
1211 -1333 1355 0
-1211 1333 1355 0
1211 1333 -1355 0
-1211 -1333 -1355 0
1210 1337 1356 0
-1210 -1337 1356 0
1210 -1337 -1356 0
-1210 1337 -1356 0
1209 1342 1357 0
-1209 -1342 1357 0
1209 -1342 -1357 0
-1209 1342 -1357 0
1208 1347 1358 0
-1208 -1347 1358 0
1208 -1347 -1358 0
-1208 1347 -1358 0
1351 1359 0
-1351 -1359 0
1353 1360 0
-1353 -1360 0
-1359 -1360 1361 0
1359 -1361 0
1360 -1361 0
-1358 -1361 1362 0
1358 -1362 0
1361 -1362 0
-1357 -1362 1363 0
1357 -1363 0
1362 -1363 0
-1356 -1363 1364 0
1356 -1364 0
1363 -1364 0
-1355 -1364 1365 0
1355 -1365 0
1364 -1365 0
-1314 -1365 1366 0
1314 -1366 0
1365 -1366 0
1270 1366 -1367 0
-1270 1367 0
-1366 1367 0
-911 923 1368 0
911 -923 1368 0
-911 -923 -1368 0
911 923 -1368 0
-911 -923 1369 0
911 -1369 0
923 -1369 0
-910 922 1370 0
910 -922 1370 0
-910 -922 -1370 0
910 922 -1370 0
1369 -1370 1371 0
-1369 1370 1371 0
-1369 -1370 -1371 0
1369 1370 -1371 0
-1369 -1370 1372 0
1370 -1372 0
1369 -1372 0
-910 -922 1373 0
910 -1373 0
922 -1373 0
1372 1373 -1374 0
-1372 1374 0
-1373 1374 0
-909 921 1375 0
909 -921 1375 0
-909 -921 -1375 0
909 921 -1375 0
1374 -1375 1376 0
-1374 1375 1376 0
-1374 -1375 -1376 0
1374 1375 -1376 0
-1374 -1375 1377 0
1375 -1377 0
1374 -1377 0
-909 -921 1378 0
909 -1378 0
921 -1378 0
1377 1378 -1379 0
-1377 1379 0
-1378 1379 0
-908 920 1380 0
908 -920 1380 0
-908 -920 -1380 0
908 920 -1380 0
1379 -1380 1381 0
-1379 1380 1381 0
-1379 -1380 -1381 0
1379 1380 -1381 0
-1379 -1380 1382 0
1380 -1382 0
1379 -1382 0
-908 -920 1383 0
908 -1383 0
920 -1383 0
1382 1383 -1384 0
-1382 1384 0
-1383 1384 0
1384 1385 0
-1384 -1385 0
1381 1386 0
-1381 -1386 0
-1385 -1386 1387 0
1385 -1387 0
1386 -1387 0
1376 1388 0
-1376 -1388 0
-1387 -1388 1389 0
1387 -1389 0
1388 -1389 0
-1371 1390 0
1371 -1390 0
1371 -1389 1391 0
1389 -1391 0
-1371 -1391 0
-1389 -1390 1392 0
1389 -1392 0
1390 -1392 0
1368 -1392 1393 0
1392 -1393 0
-1368 -1393 0
1391 1393 -1394 0
-1393 1394 0
-1391 1394 0
-1368 -1394 1395 0
1394 -1395 0
1368 -1395 0
-1394 1395 -1396 0
-1395 1396 0
1394 1396 0
-1371 -1394 1397 0
1394 -1397 0
1371 -1397 0
-1394 1397 -1398 0
-1397 1398 0
1394 1398 0
-1376 -1394 1399 0
1394 -1399 0
1376 -1399 0
-1381 -1394 1400 0
1394 -1400 0
1381 -1400 0
-1384 -1394 1401 0
1394 -1401 0
1384 -1401 0
1211 1396 1402 0
-1211 -1396 1402 0
1211 -1396 -1402 0
-1211 1396 -1402 0
1210 1398 1403 0
-1210 -1398 1403 0
1210 -1398 -1403 0
-1210 1398 -1403 0
1209 1399 1404 0
-1209 -1399 1404 0
1209 -1399 -1404 0
-1209 1399 -1404 0
1208 1400 1405 0
-1208 -1400 1405 0
1208 -1400 -1405 0
-1208 1400 -1405 0
1401 1406 0
-1401 -1406 0
-1405 -1406 1407 0
1405 -1407 0
1406 -1407 0
-1404 -1407 1408 0
1404 -1408 0
1407 -1408 0
-1403 -1408 1409 0
1403 -1409 0
1408 -1409 0
-1402 -1409 1410 0
1402 -1410 0
1409 -1410 0
-1183 -1410 1411 0
1183 -1411 0
1410 -1411 0
-923 -1211 1412 0
923 1211 1412 0
923 -1211 -1412 0
-923 1211 -1412 0
923 -1211 1413 0
1211 -1413 0
-923 -1413 0
1412 1413 -1414 0
-1412 1414 0
-1413 1414 0
-922 -1210 1415 0
922 1210 1415 0
922 -1210 -1415 0
-922 1210 -1415 0
1414 -1415 1416 0
-1414 1415 1416 0
-1414 -1415 -1416 0
1414 1415 -1416 0
-1414 -1415 1417 0
1415 -1417 0
1414 -1417 0
922 -1210 1418 0
1210 -1418 0
-922 -1418 0
1417 1418 -1419 0
-1417 1419 0
-1418 1419 0
-921 -1209 1420 0
921 1209 1420 0
921 -1209 -1420 0
-921 1209 -1420 0
1419 -1420 1421 0
-1419 1420 1421 0
-1419 -1420 -1421 0
1419 1420 -1421 0
-1419 -1420 1422 0
1420 -1422 0
1419 -1422 0
921 -1209 1423 0
1209 -1423 0
-921 -1423 0
1422 1423 -1424 0
-1422 1424 0
-1423 1424 0
-920 -1208 1425 0
920 1208 1425 0
920 -1208 -1425 0
-920 1208 -1425 0
1424 -1425 1426 0
-1424 1425 1426 0
-1424 -1425 -1426 0
1424 1425 -1426 0
-1424 -1425 1427 0
1425 -1427 0
1424 -1427 0
920 -1208 1428 0
1208 -1428 0
-920 -1428 0
1427 1428 -1429 0
-1427 1429 0
-1428 1429 0
-911 1412 1430 0
911 -1412 1430 0
-911 -1412 -1430 0
911 1412 -1430 0
-911 -1412 1431 0
911 -1431 0
1412 -1431 0
1430 1431 -1432 0
-1430 1432 0
-1431 1432 0
-910 -1416 1433 0
910 1416 1433 0
-910 1416 -1433 0
910 -1416 -1433 0
1432 -1433 1434 0
-1432 1433 1434 0
-1432 -1433 -1434 0
1432 1433 -1434 0
-1432 -1433 1435 0
1433 -1435 0
1432 -1435 0
-910 1416 1436 0
910 -1436 0
-1416 -1436 0
1435 1436 -1437 0
-1435 1437 0
-1436 1437 0
-909 -1421 1438 0
909 1421 1438 0
-909 1421 -1438 0
909 -1421 -1438 0
1437 -1438 1439 0
-1437 1438 1439 0
-1437 -1438 -1439 0
1437 1438 -1439 0
-1437 -1438 1440 0
1438 -1440 0
1437 -1440 0
-909 1421 1441 0
909 -1441 0
-1421 -1441 0
1440 1441 -1442 0
-1440 1442 0
-1441 1442 0
-908 -1426 1443 0
908 1426 1443 0
-908 1426 -1443 0
908 -1426 -1443 0
1442 -1443 1444 0
-1442 1443 1444 0
-1442 -1443 -1444 0
1442 1443 -1444 0
-1442 -1443 1445 0
1443 -1445 0
1442 -1445 0
-908 1426 1446 0
908 -1446 0
-1426 -1446 0
1445 1446 -1447 0
-1445 1447 0
-1446 1447 0
-1429 1447 1448 0
1429 -1447 1448 0
-1429 -1447 -1448 0
1429 1447 -1448 0
-1429 -1447 1449 0
1429 -1449 0
1447 -1449 0
-1429 1449 1450 0
1429 -1449 1450 0
-1429 -1449 -1450 0
1429 1449 -1450 0
-1429 -1449 1451 0
1429 -1451 0
1449 -1451 0
-1430 1452 0
1430 -1452 0
1434 1453 0
-1434 -1453 0
-1439 1454 0
1439 -1454 0
1444 1455 0
-1444 -1455 0
1448 1456 0
-1448 -1456 0
1450 1457 0
-1450 -1457 0
-1456 -1457 1458 0
1456 -1458 0
1457 -1458 0
-1455 -1458 1459 0
1455 -1459 0
1458 -1459 0
-1454 -1459 1460 0
1454 -1460 0
1459 -1460 0
-1453 -1460 1461 0
1453 -1461 0
1460 -1461 0
-1452 -1461 1462 0
1452 -1462 0
1461 -1462 0
-1411 -1462 1463 0
1411 -1463 0
1462 -1463 0
1367 1463 0
