c auto generated from <file>
p cnf 210 2940
-1 -2 -3 -4 -5 -6 0
-7 -8 -3 -9 -5 -6 0
-10 -11 -3 -12 -5 -6 0
-13 -14 -3 -15 -5 -6 0
-16 -17 -3 -18 -5 -6 0
-19 -20 -3 -21 -5 -6 0
-22 -23 -3 -24 -5 -6 0
-25 -26 -3 -27 -5 -6 0
-28 -29 -3 -30 -5 -6 0
-31 -32 -3 -33 -5 -6 0
-34 -35 -3 -36 -5 -6 0
-37 -38 -3 -39 -5 -6 0
-40 -8 -2 -9 -4 -6 0
-41 -11 -2 -12 -4 -6 0
-42 -14 -2 -15 -4 -6 0
-43 -17 -2 -18 -4 -6 0
-44 -20 -2 -21 -4 -6 0
-45 -23 -2 -24 -4 -6 0
-46 -26 -2 -27 -4 -6 0
-47 -29 -2 -30 -4 -6 0
-48 -32 -2 -33 -4 -6 0
-49 -35 -2 -36 -4 -6 0
-50 -38 -2 -39 -4 -6 0
-51 -11 -8 -12 -9 -6 0
-52 -14 -8 -15 -9 -6 0
-53 -17 -8 -18 -9 -6 0
-54 -20 -8 -21 -9 -6 0
-55 -23 -8 -24 -9 -6 0
-56 -26 -8 -27 -9 -6 0
-57 -29 -8 -30 -9 -6 0
-58 -32 -8 -33 -9 -6 0
-59 -35 -8 -36 -9 -6 0
-60 -38 -8 -39 -9 -6 0
-61 -14 -11 -15 -12 -6 0
-62 -17 -11 -18 -12 -6 0
-63 -20 -11 -21 -12 -6 0
-64 -23 -11 -24 -12 -6 0
-65 -26 -11 -27 -12 -6 0
-66 -29 -11 -30 -12 -6 0
-67 -32 -11 -33 -12 -6 0
-68 -35 -11 -36 -12 -6 0
-69 -38 -11 -39 -12 -6 0
-70 -17 -14 -18 -15 -6 0
-71 -20 -14 -21 -15 -6 0
-72 -23 -14 -24 -15 -6 0
-73 -26 -14 -27 -15 -6 0
-74 -29 -14 -30 -15 -6 0
-75 -32 -14 -33 -15 -6 0
-76 -35 -14 -36 -15 -6 0
-77 -38 -14 -39 -15 -6 0
-78 -20 -17 -21 -18 -6 0
-79 -23 -17 -24 -18 -6 0
-80 -26 -17 -27 -18 -6 0
-81 -29 -17 -30 -18 -6 0
-82 -32 -17 -33 -18 -6 0
-83 -35 -17 -36 -18 -6 0
-84 -38 -17 -39 -18 -6 0
-85 -23 -20 -24 -21 -6 0
-86 -26 -20 -27 -21 -6 0
-87 -29 -20 -30 -21 -6 0
-88 -32 -20 -33 -21 -6 0
-89 -35 -20 -36 -21 -6 0
-90 -38 -20 -39 -21 -6 0
-91 -26 -23 -27 -24 -6 0
-92 -29 -23 -30 -24 -6 0
-93 -32 -23 -33 -24 -6 0
-94 -35 -23 -36 -24 -6 0
-95 -38 -23 -39 -24 -6 0
-96 -29 -26 -30 -27 -6 0
-97 -32 -26 -33 -27 -6 0
-98 -35 -26 -36 -27 -6 0
-99 -38 -26 -39 -27 -6 0
-100 -32 -29 -33 -30 -6 0
-101 -35 -29 -36 -30 -6 0
-102 -38 -29 -39 -30 -6 0
-103 -35 -32 -36 -33 -6 0
-104 -38 -32 -39 -33 -6 0
-105 -38 -35 -39 -36 -6 0
-40 -7 -1 -9 -4 -5 0
-41 -10 -1 -12 -4 -5 0
-42 -13 -1 -15 -4 -5 0
-43 -16 -1 -18 -4 -5 0
-44 -19 -1 -21 -4 -5 0
-45 -22 -1 -24 -4 -5 0
-46 -25 -1 -27 -4 -5 0
-47 -28 -1 -30 -4 -5 0
-48 -31 -1 -33 -4 -5 0
-49 -34 -1 -36 -4 -5 0
-50 -37 -1 -39 -4 -5 0
-51 -10 -7 -12 -9 -5 0
-52 -13 -7 -15 -9 -5 0
-53 -16 -7 -18 -9 -5 0
-54 -19 -7 -21 -9 -5 0
-55 -22 -7 -24 -9 -5 0
-56 -25 -7 -27 -9 -5 0
-57 -28 -7 -30 -9 -5 0
-58 -31 -7 -33 -9 -5 0
-59 -34 -7 -36 -9 -5 0
-60 -37 -7 -39 -9 -5 0
-61 -13 -10 -15 -12 -5 0
-62 -16 -10 -18 -12 -5 0
-63 -19 -10 -21 -12 -5 0
-64 -22 -10 -24 -12 -5 0
-65 -25 -10 -27 -12 -5 0
-66 -28 -10 -30 -12 -5 0
-67 -31 -10 -33 -12 -5 0
-68 -34 -10 -36 -12 -5 0
-69 -37 -10 -39 -12 -5 0
-70 -16 -13 -18 -15 -5 0
-71 -19 -13 -21 -15 -5 0
-72 -22 -13 -24 -15 -5 0
-73 -25 -13 -27 -15 -5 0
-74 -28 -13 -30 -15 -5 0
-75 -31 -13 -33 -15 -5 0
-76 -34 -13 -36 -15 -5 0
-77 -37 -13 -39 -15 -5 0
-78 -19 -16 -21 -18 -5 0
-79 -22 -16 -24 -18 -5 0
-80 -25 -16 -27 -18 -5 0
-81 -28 -16 -30 -18 -5 0
-82 -31 -16 -33 -18 -5 0
-83 -34 -16 -36 -18 -5 0
-84 -37 -16 -39 -18 -5 0
-85 -22 -19 -24 -21 -5 0
-86 -25 -19 -27 -21 -5 0
-87 -28 -19 -30 -21 -5 0
-88 -31 -19 -33 -21 -5 0
-89 -34 -19 -36 -21 -5 0
-90 -37 -19 -39 -21 -5 0
-91 -25 -22 -27 -24 -5 0
-92 -28 -22 -30 -24 -5 0
-93 -31 -22 -33 -24 -5 0
-94 -34 -22 -36 -24 -5 0
-95 -37 -22 -39 -24 -5 0
-96 -28 -25 -30 -27 -5 0
-97 -31 -25 -33 -27 -5 0
-98 -34 -25 -36 -27 -5 0
-99 -37 -25 -39 -27 -5 0
-100 -31 -28 -33 -30 -5 0
-101 -34 -28 -36 -30 -5 0
-102 -37 -28 -39 -30 -5 0
-103 -34 -31 -36 -33 -5 0
-104 -37 -31 -39 -33 -5 0
-105 -37 -34 -39 -36 -5 0
-51 -41 -40 -12 -9 -4 0
-52 -42 -40 -15 -9 -4 0
-53 -43 -40 -18 -9 -4 0
-54 -44 -40 -21 -9 -4 0
-55 -45 -40 -24 -9 -4 0
-56 -46 -40 -27 -9 -4 0
-57 -47 -40 -30 -9 -4 0
-58 -48 -40 -33 -9 -4 0
-59 -49 -40 -36 -9 -4 0
-60 -50 -40 -39 -9 -4 0
-61 -42 -41 -15 -12 -4 0
-62 -43 -41 -18 -12 -4 0
-63 -44 -41 -21 -12 -4 0
-64 -45 -41 -24 -12 -4 0
-65 -46 -41 -27 -12 -4 0
-66 -47 -41 -30 -12 -4 0
-67 -48 -41 -33 -12 -4 0
-68 -49 -41 -36 -12 -4 0
-69 -50 -41 -39 -12 -4 0
-70 -43 -42 -18 -15 -4 0
-71 -44 -42 -21 -15 -4 0
-72 -45 -42 -24 -15 -4 0
-73 -46 -42 -27 -15 -4 0
-74 -47 -42 -30 -15 -4 0
-75 -48 -42 -33 -15 -4 0
-76 -49 -42 -36 -15 -4 0
-77 -50 -42 -39 -15 -4 0
-78 -44 -43 -21 -18 -4 0
-79 -45 -43 -24 -18 -4 0
-80 -46 -43 -27 -18 -4 0
-81 -47 -43 -30 -18 -4 0
-82 -48 -43 -33 -18 -4 0
-83 -49 -43 -36 -18 -4 0
-84 -50 -43 -39 -18 -4 0
-85 -45 -44 -24 -21 -4 0
-86 -46 -44 -27 -21 -4 0
-87 -47 -44 -30 -21 -4 0
-88 -48 -44 -33 -21 -4 0
-89 -49 -44 -36 -21 -4 0
-90 -50 -44 -39 -21 -4 0
-91 -46 -45 -27 -24 -4 0
-92 -47 -45 -30 -24 -4 0
-93 -48 -45 -33 -24 -4 0
-94 -49 -45 -36 -24 -4 0
-95 -50 -45 -39 -24 -4 0
-96 -47 -46 -30 -27 -4 0
-97 -48 -46 -33 -27 -4 0
-98 -49 -46 -36 -27 -4 0
-99 -50 -46 -39 -27 -4 0
-100 -48 -47 -33 -30 -4 0
-101 -49 -47 -36 -30 -4 0
-102 -50 -47 -39 -30 -4 0
-103 -49 -48 -36 -33 -4 0
-104 -50 -48 -39 -33 -4 0
-105 -50 -49 -39 -36 -4 0
-61 -52 -51 -15 -12 -9 0
-62 -53 -51 -18 -12 -9 0
-63 -54 -51 -21 -12 -9 0
-64 -55 -51 -24 -12 -9 0
-65 -56 -51 -27 -12 -9 0
-66 -57 -51 -30 -12 -9 0
-67 -58 -51 -33 -12 -9 0
-68 -59 -51 -36 -12 -9 0
-69 -60 -51 -39 -12 -9 0
-70 -53 -52 -18 -15 -9 0
-71 -54 -52 -21 -15 -9 0
-72 -55 -52 -24 -15 -9 0
-73 -56 -52 -27 -15 -9 0
-74 -57 -52 -30 -15 -9 0
-75 -58 -52 -33 -15 -9 0
-76 -59 -52 -36 -15 -9 0
-77 -60 -52 -39 -15 -9 0
-78 -54 -53 -21 -18 -9 0
-79 -55 -53 -24 -18 -9 0
-80 -56 -53 -27 -18 -9 0
-81 -57 -53 -30 -18 -9 0
-82 -58 -53 -33 -18 -9 0
-83 -59 -53 -36 -18 -9 0
-84 -60 -53 -39 -18 -9 0
-85 -55 -54 -24 -21 -9 0
-86 -56 -54 -27 -21 -9 0
-87 -57 -54 -30 -21 -9 0
-88 -58 -54 -33 -21 -9 0
-89 -59 -54 -36 -21 -9 0
-90 -60 -54 -39 -21 -9 0
-91 -56 -55 -27 -24 -9 0
-92 -57 -55 -30 -24 -9 0
-93 -58 -55 -33 -24 -9 0
-94 -59 -55 -36 -24 -9 0
-95 -60 -55 -39 -24 -9 0
-96 -57 -56 -30 -27 -9 0
-97 -58 -56 -33 -27 -9 0
-98 -59 -56 -36 -27 -9 0
-99 -60 -56 -39 -27 -9 0
-100 -58 -57 -33 -30 -9 0
-101 -59 -57 -36 -30 -9 0
-102 -60 -57 -39 -30 -9 0
-103 -59 -58 -36 -33 -9 0
-104 -60 -58 -39 -33 -9 0
-105 -60 -59 -39 -36 -9 0
-70 -62 -61 -18 -15 -12 0
-71 -63 -61 -21 -15 -12 0
-72 -64 -61 -24 -15 -12 0
-73 -65 -61 -27 -15 -12 0
-74 -66 -61 -30 -15 -12 0
-75 -67 -61 -33 -15 -12 0
-76 -68 -61 -36 -15 -12 0
-77 -69 -61 -39 -15 -12 0
-78 -63 -62 -21 -18 -12 0
-79 -64 -62 -24 -18 -12 0
-80 -65 -62 -27 -18 -12 0
-81 -66 -62 -30 -18 -12 0
-82 -67 -62 -33 -18 -12 0
-83 -68 -62 -36 -18 -12 0
-84 -69 -62 -39 -18 -12 0
-85 -64 -63 -24 -21 -12 0
-86 -65 -63 -27 -21 -12 0
-87 -66 -63 -30 -21 -12 0
-88 -67 -63 -33 -21 -12 0
-89 -68 -63 -36 -21 -12 0
-90 -69 -63 -39 -21 -12 0
-91 -65 -64 -27 -24 -12 0
-92 -66 -64 -30 -24 -12 0
-93 -67 -64 -33 -24 -12 0
-94 -68 -64 -36 -24 -12 0
-95 -69 -64 -39 -24 -12 0
-96 -66 -65 -30 -27 -12 0
-97 -67 -65 -33 -27 -12 0
-98 -68 -65 -36 -27 -12 0
-99 -69 -65 -39 -27 -12 0
-100 -67 -66 -33 -30 -12 0
-101 -68 -66 -36 -30 -12 0
-102 -69 -66 -39 -30 -12 0
-103 -68 -67 -36 -33 -12 0
-104 -69 -67 -39 -33 -12 0
-105 -69 -68 -39 -36 -12 0
-78 -71 -70 -21 -18 -15 0
-79 -72 -70 -24 -18 -15 0
-80 -73 -70 -27 -18 -15 0
-81 -74 -70 -30 -18 -15 0
-82 -75 -70 -33 -18 -15 0
-83 -76 -70 -36 -18 -15 0
-84 -77 -70 -39 -18 -15 0
-85 -72 -71 -24 -21 -15 0
-86 -73 -71 -27 -21 -15 0
-87 -74 -71 -30 -21 -15 0
-88 -75 -71 -33 -21 -15 0
-89 -76 -71 -36 -21 -15 0
-90 -77 -71 -39 -21 -15 0
-91 -73 -72 -27 -24 -15 0
-92 -74 -72 -30 -24 -15 0
-93 -75 -72 -33 -24 -15 0
-94 -76 -72 -36 -24 -15 0
-95 -77 -72 -39 -24 -15 0
-96 -74 -73 -30 -27 -15 0
-97 -75 -73 -33 -27 -15 0
-98 -76 -73 -36 -27 -15 0
-99 -77 -73 -39 -27 -15 0
-100 -75 -74 -33 -30 -15 0
-101 -76 -74 -36 -30 -15 0
-102 -77 -74 -39 -30 -15 0
-103 -76 -75 -36 -33 -15 0
-104 -77 -75 -39 -33 -15 0
-105 -77 -76 -39 -36 -15 0
-85 -79 -78 -24 -21 -18 0
-86 -80 -78 -27 -21 -18 0
-87 -81 -78 -30 -21 -18 0
-88 -82 -78 -33 -21 -18 0
-89 -83 -78 -36 -21 -18 0
-90 -84 -78 -39 -21 -18 0
-91 -80 -79 -27 -24 -18 0
-92 -81 -79 -30 -24 -18 0
-93 -82 -79 -33 -24 -18 0
-94 -83 -79 -36 -24 -18 0
-95 -84 -79 -39 -24 -18 0
-96 -81 -80 -30 -27 -18 0
-97 -82 -80 -33 -27 -18 0
-98 -83 -80 -36 -27 -18 0
-99 -84 -80 -39 -27 -18 0
-100 -82 -81 -33 -30 -18 0
-101 -83 -81 -36 -30 -18 0
-102 -84 -81 -39 -30 -18 0
-103 -83 -82 -36 -33 -18 0
-104 -84 -82 -39 -33 -18 0
-105 -84 -83 -39 -36 -18 0
-91 -86 -85 -27 -24 -21 0
-92 -87 -85 -30 -24 -21 0
-93 -88 -85 -33 -24 -21 0
-94 -89 -85 -36 -24 -21 0
-95 -90 -85 -39 -24 -21 0
-96 -87 -86 -30 -27 -21 0
-97 -88 -86 -33 -27 -21 0
-98 -89 -86 -36 -27 -21 0
-99 -90 -86 -39 -27 -21 0
-100 -88 -87 -33 -30 -21 0
-101 -89 -87 -36 -30 -21 0
-102 -90 -87 -39 -30 -21 0
-103 -89 -88 -36 -33 -21 0
-104 -90 -88 -39 -33 -21 0
-105 -90 -89 -39 -36 -21 0
-96 -92 -91 -30 -27 -24 0
-97 -93 -91 -33 -27 -24 0
-98 -94 -91 -36 -27 -24 0
-99 -95 -91 -39 -27 -24 0
-100 -93 -92 -33 -30 -24 0
-101 -94 -92 -36 -30 -24 0
-102 -95 -92 -39 -30 -24 0
-103 -94 -93 -36 -33 -24 0
-104 -95 -93 -39 -33 -24 0
-105 -95 -94 -39 -36 -24 0
-100 -97 -96 -33 -30 -27 0
-101 -98 -96 -36 -30 -27 0
-102 -99 -96 -39 -30 -27 0
-103 -98 -97 -36 -33 -27 0
-104 -99 -97 -39 -33 -27 0
-105 -99 -98 -39 -36 -27 0
-103 -101 -100 -36 -33 -30 0
-104 -102 -100 -39 -33 -30 0
-105 -102 -101 -39 -36 -30 0
-105 -104 -103 -39 -36 -33 0
-40 -7 -1 -8 -2 -3 0
-41 -10 -1 -11 -2 -3 0
-42 -13 -1 -14 -2 -3 0
-43 -16 -1 -17 -2 -3 0
-44 -19 -1 -20 -2 -3 0
-45 -22 -1 -23 -2 -3 0
-46 -25 -1 -26 -2 -3 0
-47 -28 -1 -29 -2 -3 0
-48 -31 -1 -32 -2 -3 0
-49 -34 -1 -35 -2 -3 0
-50 -37 -1 -38 -2 -3 0
-51 -10 -7 -11 -8 -3 0
-52 -13 -7 -14 -8 -3 0
-53 -16 -7 -17 -8 -3 0
-54 -19 -7 -20 -8 -3 0
-55 -22 -7 -23 -8 -3 0
-56 -25 -7 -26 -8 -3 0
-57 -28 -7 -29 -8 -3 0
-58 -31 -7 -32 -8 -3 0
-59 -34 -7 -35 -8 -3 0
-60 -37 -7 -38 -8 -3 0
-61 -13 -10 -14 -11 -3 0
-62 -16 -10 -17 -11 -3 0
-63 -19 -10 -20 -11 -3 0
-64 -22 -10 -23 -11 -3 0
-65 -25 -10 -26 -11 -3 0
-66 -28 -10 -29 -11 -3 0
-67 -31 -10 -32 -11 -3 0
-68 -34 -10 -35 -11 -3 0
-69 -37 -10 -38 -11 -3 0
-70 -16 -13 -17 -14 -3 0
-71 -19 -13 -20 -14 -3 0
-72 -22 -13 -23 -14 -3 0
-73 -25 -13 -26 -14 -3 0
-74 -28 -13 -29 -14 -3 0
-75 -31 -13 -32 -14 -3 0
-76 -34 -13 -35 -14 -3 0
-77 -37 -13 -38 -14 -3 0
-78 -19 -16 -20 -17 -3 0
-79 -22 -16 -23 -17 -3 0
-80 -25 -16 -26 -17 -3 0
-81 -28 -16 -29 -17 -3 0
-82 -31 -16 -32 -17 -3 0
-83 -34 -16 -35 -17 -3 0
-84 -37 -16 -38 -17 -3 0
-85 -22 -19 -23 -20 -3 0
-86 -25 -19 -26 -20 -3 0
-87 -28 -19 -29 -20 -3 0
-88 -31 -19 -32 -20 -3 0
-89 -34 -19 -35 -20 -3 0
-90 -37 -19 -38 -20 -3 0
-91 -25 -22 -26 -23 -3 0
-92 -28 -22 -29 -23 -3 0
-93 -31 -22 -32 -23 -3 0
-94 -34 -22 -35 -23 -3 0
-95 -37 -22 -38 -23 -3 0
-96 -28 -25 -29 -26 -3 0
-97 -31 -25 -32 -26 -3 0
-98 -34 -25 -35 -26 -3 0
-99 -37 -25 -38 -26 -3 0
-100 -31 -28 -32 -29 -3 0
-101 -34 -28 -35 -29 -3 0
-102 -37 -28 -38 -29 -3 0
-103 -34 -31 -35 -32 -3 0
-104 -37 -31 -38 -32 -3 0
-105 -37 -34 -38 -35 -3 0
-51 -41 -40 -11 -8 -2 0
-52 -42 -40 -14 -8 -2 0
-53 -43 -40 -17 -8 -2 0
-54 -44 -40 -20 -8 -2 0
-55 -45 -40 -23 -8 -2 0
-56 -46 -40 -26 -8 -2 0
-57 -47 -40 -29 -8 -2 0
-58 -48 -40 -32 -8 -2 0
-59 -49 -40 -35 -8 -2 0
-60 -50 -40 -38 -8 -2 0
-61 -42 -41 -14 -11 -2 0
-62 -43 -41 -17 -11 -2 0
-63 -44 -41 -20 -11 -2 0
-64 -45 -41 -23 -11 -2 0
-65 -46 -41 -26 -11 -2 0
-66 -47 -41 -29 -11 -2 0
-67 -48 -41 -32 -11 -2 0
-68 -49 -41 -35 -11 -2 0
-69 -50 -41 -38 -11 -2 0
-70 -43 -42 -17 -14 -2 0
-71 -44 -42 -20 -14 -2 0
-72 -45 -42 -23 -14 -2 0
-73 -46 -42 -26 -14 -2 0
-74 -47 -42 -29 -14 -2 0
-75 -48 -42 -32 -14 -2 0
-76 -49 -42 -35 -14 -2 0
-77 -50 -42 -38 -14 -2 0
-78 -44 -43 -20 -17 -2 0
-79 -45 -43 -23 -17 -2 0
-80 -46 -43 -26 -17 -2 0
-81 -47 -43 -29 -17 -2 0
-82 -48 -43 -32 -17 -2 0
-83 -49 -43 -35 -17 -2 0
-84 -50 -43 -38 -17 -2 0
-85 -45 -44 -23 -20 -2 0
-86 -46 -44 -26 -20 -2 0
-87 -47 -44 -29 -20 -2 0
-88 -48 -44 -32 -20 -2 0
-89 -49 -44 -35 -20 -2 0
-90 -50 -44 -38 -20 -2 0
-91 -46 -45 -26 -23 -2 0
-92 -47 -45 -29 -23 -2 0
-93 -48 -45 -32 -23 -2 0
-94 -49 -45 -35 -23 -2 0
-95 -50 -45 -38 -23 -2 0
-96 -47 -46 -29 -26 -2 0
-97 -48 -46 -32 -26 -2 0
-98 -49 -46 -35 -26 -2 0
-99 -50 -46 -38 -26 -2 0
-100 -48 -47 -32 -29 -2 0
-101 -49 -47 -35 -29 -2 0
-102 -50 -47 -38 -29 -2 0
-103 -49 -48 -35 -32 -2 0
-104 -50 -48 -38 -32 -2 0
-105 -50 -49 -38 -35 -2 0
-61 -52 -51 -14 -11 -8 0
-62 -53 -51 -17 -11 -8 0
-63 -54 -51 -20 -11 -8 0
-64 -55 -51 -23 -11 -8 0
-65 -56 -51 -26 -11 -8 0
-66 -57 -51 -29 -11 -8 0
-67 -58 -51 -32 -11 -8 0
-68 -59 -51 -35 -11 -8 0
-69 -60 -51 -38 -11 -8 0
-70 -53 -52 -17 -14 -8 0
-71 -54 -52 -20 -14 -8 0
-72 -55 -52 -23 -14 -8 0
-73 -56 -52 -26 -14 -8 0
-74 -57 -52 -29 -14 -8 0
-75 -58 -52 -32 -14 -8 0
-76 -59 -52 -35 -14 -8 0
-77 -60 -52 -38 -14 -8 0
-78 -54 -53 -20 -17 -8 0
-79 -55 -53 -23 -17 -8 0
-80 -56 -53 -26 -17 -8 0
-81 -57 -53 -29 -17 -8 0
-82 -58 -53 -32 -17 -8 0
-83 -59 -53 -35 -17 -8 0
-84 -60 -53 -38 -17 -8 0
-85 -55 -54 -23 -20 -8 0
-86 -56 -54 -26 -20 -8 0
-87 -57 -54 -29 -20 -8 0
-88 -58 -54 -32 -20 -8 0
-89 -59 -54 -35 -20 -8 0
-90 -60 -54 -38 -20 -8 0
-91 -56 -55 -26 -23 -8 0
-92 -57 -55 -29 -23 -8 0
-93 -58 -55 -32 -23 -8 0
-94 -59 -55 -35 -23 -8 0
-95 -60 -55 -38 -23 -8 0
-96 -57 -56 -29 -26 -8 0
-97 -58 -56 -32 -26 -8 0
-98 -59 -56 -35 -26 -8 0
-99 -60 -56 -38 -26 -8 0
-100 -58 -57 -32 -29 -8 0
-101 -59 -57 -35 -29 -8 0
-102 -60 -57 -38 -29 -8 0
-103 -59 -58 -35 -32 -8 0
-104 -60 -58 -38 -32 -8 0
-105 -60 -59 -38 -35 -8 0
-70 -62 -61 -17 -14 -11 0
-71 -63 -61 -20 -14 -11 0
-72 -64 -61 -23 -14 -11 0
-73 -65 -61 -26 -14 -11 0
-74 -66 -61 -29 -14 -11 0
-75 -67 -61 -32 -14 -11 0
-76 -68 -61 -35 -14 -11 0
-77 -69 -61 -38 -14 -11 0
-78 -63 -62 -20 -17 -11 0
-79 -64 -62 -23 -17 -11 0
-80 -65 -62 -26 -17 -11 0
-81 -66 -62 -29 -17 -11 0
-82 -67 -62 -32 -17 -11 0
-83 -68 -62 -35 -17 -11 0
-84 -69 -62 -38 -17 -11 0
-85 -64 -63 -23 -20 -11 0
-86 -65 -63 -26 -20 -11 0
-87 -66 -63 -29 -20 -11 0
-88 -67 -63 -32 -20 -11 0
-89 -68 -63 -35 -20 -11 0
-90 -69 -63 -38 -20 -11 0
-91 -65 -64 -26 -23 -11 0
-92 -66 -64 -29 -23 -11 0
-93 -67 -64 -32 -23 -11 0
-94 -68 -64 -35 -23 -11 0
-95 -69 -64 -38 -23 -11 0
-96 -66 -65 -29 -26 -11 0
-97 -67 -65 -32 -26 -11 0
-98 -68 -65 -35 -26 -11 0
-99 -69 -65 -38 -26 -11 0
-100 -67 -66 -32 -29 -11 0
-101 -68 -66 -35 -29 -11 0
-102 -69 -66 -38 -29 -11 0
-103 -68 -67 -35 -32 -11 0
-104 -69 -67 -38 -32 -11 0
-105 -69 -68 -38 -35 -11 0
-78 -71 -70 -20 -17 -14 0
-79 -72 -70 -23 -17 -14 0
-80 -73 -70 -26 -17 -14 0
-81 -74 -70 -29 -17 -14 0
-82 -75 -70 -32 -17 -14 0
-83 -76 -70 -35 -17 -14 0
-84 -77 -70 -38 -17 -14 0
-85 -72 -71 -23 -20 -14 0
-86 -73 -71 -26 -20 -14 0
-87 -74 -71 -29 -20 -14 0
-88 -75 -71 -32 -20 -14 0
-89 -76 -71 -35 -20 -14 0
-90 -77 -71 -38 -20 -14 0
-91 -73 -72 -26 -23 -14 0
-92 -74 -72 -29 -23 -14 0
-93 -75 -72 -32 -23 -14 0
-94 -76 -72 -35 -23 -14 0
-95 -77 -72 -38 -23 -14 0
-96 -74 -73 -29 -26 -14 0
-97 -75 -73 -32 -26 -14 0
-98 -76 -73 -35 -26 -14 0
-99 -77 -73 -38 -26 -14 0
-100 -75 -74 -32 -29 -14 0
-101 -76 -74 -35 -29 -14 0
-102 -77 -74 -38 -29 -14 0
-103 -76 -75 -35 -32 -14 0
-104 -77 -75 -38 -32 -14 0
-105 -77 -76 -38 -35 -14 0
-85 -79 -78 -23 -20 -17 0
-86 -80 -78 -26 -20 -17 0
-87 -81 -78 -29 -20 -17 0
-88 -82 -78 -32 -20 -17 0
-89 -83 -78 -35 -20 -17 0
-90 -84 -78 -38 -20 -17 0
-91 -80 -79 -26 -23 -17 0
-92 -81 -79 -29 -23 -17 0
-93 -82 -79 -32 -23 -17 0
-94 -83 -79 -35 -23 -17 0
-95 -84 -79 -38 -23 -17 0
-96 -81 -80 -29 -26 -17 0
-97 -82 -80 -32 -26 -17 0
-98 -83 -80 -35 -26 -17 0
-99 -84 -80 -38 -26 -17 0
-100 -82 -81 -32 -29 -17 0
-101 -83 -81 -35 -29 -17 0
-102 -84 -81 -38 -29 -17 0
-103 -83 -82 -35 -32 -17 0
-104 -84 -82 -38 -32 -17 0
-105 -84 -83 -38 -35 -17 0
-91 -86 -85 -26 -23 -20 0
-92 -87 -85 -29 -23 -20 0
-93 -88 -85 -32 -23 -20 0
-94 -89 -85 -35 -23 -20 0
-95 -90 -85 -38 -23 -20 0
-96 -87 -86 -29 -26 -20 0
-97 -88 -86 -32 -26 -20 0
-98 -89 -86 -35 -26 -20 0
-99 -90 -86 -38 -26 -20 0
-100 -88 -87 -32 -29 -20 0
-101 -89 -87 -35 -29 -20 0
-102 -90 -87 -38 -29 -20 0
-103 -89 -88 -35 -32 -20 0
-104 -90 -88 -38 -32 -20 0
-105 -90 -89 -38 -35 -20 0
-96 -92 -91 -29 -26 -23 0
-97 -93 -91 -32 -26 -23 0
-98 -94 -91 -35 -26 -23 0
-99 -95 -91 -38 -26 -23 0
-100 -93 -92 -32 -29 -23 0
-101 -94 -92 -35 -29 -23 0
-102 -95 -92 -38 -29 -23 0
-103 -94 -93 -35 -32 -23 0
-104 -95 -93 -38 -32 -23 0
-105 -95 -94 -38 -35 -23 0
-100 -97 -96 -32 -29 -26 0
-101 -98 -96 -35 -29 -26 0
-102 -99 -96 -38 -29 -26 0
-103 -98 -97 -35 -32 -26 0
-104 -99 -97 -38 -32 -26 0
-105 -99 -98 -38 -35 -26 0
-103 -101 -100 -35 -32 -29 0
-104 -102 -100 -38 -32 -29 0
-105 -102 -101 -38 -35 -29 0
-105 -104 -103 -38 -35 -32 0
-51 -41 -40 -10 -7 -1 0
-52 -42 -40 -13 -7 -1 0
-53 -43 -40 -16 -7 -1 0
-54 -44 -40 -19 -7 -1 0
-55 -45 -40 -22 -7 -1 0
-56 -46 -40 -25 -7 -1 0
-57 -47 -40 -28 -7 -1 0
-58 -48 -40 -31 -7 -1 0
-59 -49 -40 -34 -7 -1 0
-60 -50 -40 -37 -7 -1 0
-61 -42 -41 -13 -10 -1 0
-62 -43 -41 -16 -10 -1 0
-63 -44 -41 -19 -10 -1 0
-64 -45 -41 -22 -10 -1 0
-65 -46 -41 -25 -10 -1 0
-66 -47 -41 -28 -10 -1 0
-67 -48 -41 -31 -10 -1 0
-68 -49 -41 -34 -10 -1 0
-69 -50 -41 -37 -10 -1 0
-70 -43 -42 -16 -13 -1 0
-71 -44 -42 -19 -13 -1 0
-72 -45 -42 -22 -13 -1 0
-73 -46 -42 -25 -13 -1 0
-74 -47 -42 -28 -13 -1 0
-75 -48 -42 -31 -13 -1 0
-76 -49 -42 -34 -13 -1 0
-77 -50 -42 -37 -13 -1 0
-78 -44 -43 -19 -16 -1 0
-79 -45 -43 -22 -16 -1 0
-80 -46 -43 -25 -16 -1 0
-81 -47 -43 -28 -16 -1 0
-82 -48 -43 -31 -16 -1 0
-83 -49 -43 -34 -16 -1 0
-84 -50 -43 -37 -16 -1 0
-85 -45 -44 -22 -19 -1 0
-86 -46 -44 -25 -19 -1 0
-87 -47 -44 -28 -19 -1 0
-88 -48 -44 -31 -19 -1 0
-89 -49 -44 -34 -19 -1 0
-90 -50 -44 -37 -19 -1 0
-91 -46 -45 -25 -22 -1 0
-92 -47 -45 -28 -22 -1 0
-93 -48 -45 -31 -22 -1 0
-94 -49 -45 -34 -22 -1 0
-95 -50 -45 -37 -22 -1 0
-96 -47 -46 -28 -25 -1 0
-97 -48 -46 -31 -25 -1 0
-98 -49 -46 -34 -25 -1 0
-99 -50 -46 -37 -25 -1 0
-100 -48 -47 -31 -28 -1 0
-101 -49 -47 -34 -28 -1 0
-102 -50 -47 -37 -28 -1 0
-103 -49 -48 -34 -31 -1 0
-104 -50 -48 -37 -31 -1 0
-105 -50 -49 -37 -34 -1 0
-61 -52 -51 -13 -10 -7 0
-62 -53 -51 -16 -10 -7 0
-63 -54 -51 -19 -10 -7 0
-64 -55 -51 -22 -10 -7 0
-65 -56 -51 -25 -10 -7 0
-66 -57 -51 -28 -10 -7 0
-67 -58 -51 -31 -10 -7 0
-68 -59 -51 -34 -10 -7 0
-69 -60 -51 -37 -10 -7 0
-70 -53 -52 -16 -13 -7 0
-71 -54 -52 -19 -13 -7 0
-72 -55 -52 -22 -13 -7 0
-73 -56 -52 -25 -13 -7 0
-74 -57 -52 -28 -13 -7 0
-75 -58 -52 -31 -13 -7 0
-76 -59 -52 -34 -13 -7 0
-77 -60 -52 -37 -13 -7 0
-78 -54 -53 -19 -16 -7 0
-79 -55 -53 -22 -16 -7 0
-80 -56 -53 -25 -16 -7 0
-81 -57 -53 -28 -16 -7 0
-82 -58 -53 -31 -16 -7 0
-83 -59 -53 -34 -16 -7 0
-84 -60 -53 -37 -16 -7 0
-85 -55 -54 -22 -19 -7 0
-86 -56 -54 -25 -19 -7 0
-87 -57 -54 -28 -19 -7 0
-88 -58 -54 -31 -19 -7 0
-89 -59 -54 -34 -19 -7 0
-90 -60 -54 -37 -19 -7 0
-91 -56 -55 -25 -22 -7 0
-92 -57 -55 -28 -22 -7 0
-93 -58 -55 -31 -22 -7 0
-94 -59 -55 -34 -22 -7 0
-95 -60 -55 -37 -22 -7 0
-96 -57 -56 -28 -25 -7 0
-97 -58 -56 -31 -25 -7 0
-98 -59 -56 -34 -25 -7 0
-99 -60 -56 -37 -25 -7 0
-100 -58 -57 -31 -28 -7 0
-101 -59 -57 -34 -28 -7 0
-102 -60 -57 -37 -28 -7 0
-103 -59 -58 -34 -31 -7 0
-104 -60 -58 -37 -31 -7 0
-105 -60 -59 -37 -34 -7 0
-70 -62 -61 -16 -13 -10 0
-71 -63 -61 -19 -13 -10 0
-72 -64 -61 -22 -13 -10 0
-73 -65 -61 -25 -13 -10 0
-74 -66 -61 -28 -13 -10 0
-75 -67 -61 -31 -13 -10 0
-76 -68 -61 -34 -13 -10 0
-77 -69 -61 -37 -13 -10 0
-78 -63 -62 -19 -16 -10 0
-79 -64 -62 -22 -16 -10 0
-80 -65 -62 -25 -16 -10 0
-81 -66 -62 -28 -16 -10 0
-82 -67 -62 -31 -16 -10 0
-83 -68 -62 -34 -16 -10 0
-84 -69 -62 -37 -16 -10 0
-85 -64 -63 -22 -19 -10 0
-86 -65 -63 -25 -19 -10 0
-87 -66 -63 -28 -19 -10 0
-88 -67 -63 -31 -19 -10 0
-89 -68 -63 -34 -19 -10 0
-90 -69 -63 -37 -19 -10 0
-91 -65 -64 -25 -22 -10 0
-92 -66 -64 -28 -22 -10 0
-93 -67 -64 -31 -22 -10 0
-94 -68 -64 -34 -22 -10 0
-95 -69 -64 -37 -22 -10 0
-96 -66 -65 -28 -25 -10 0
-97 -67 -65 -31 -25 -10 0
-98 -68 -65 -34 -25 -10 0
-99 -69 -65 -37 -25 -10 0
-100 -67 -66 -31 -28 -10 0
-101 -68 -66 -34 -28 -10 0
-102 -69 -66 -37 -28 -10 0
-103 -68 -67 -34 -31 -10 0
-104 -69 -67 -37 -31 -10 0
-105 -69 -68 -37 -34 -10 0
-78 -71 -70 -19 -16 -13 0
-79 -72 -70 -22 -16 -13 0
-80 -73 -70 -25 -16 -13 0
-81 -74 -70 -28 -16 -13 0
-82 -75 -70 -31 -16 -13 0
-83 -76 -70 -34 -16 -13 0
-84 -77 -70 -37 -16 -13 0
-85 -72 -71 -22 -19 -13 0
-86 -73 -71 -25 -19 -13 0
-87 -74 -71 -28 -19 -13 0
-88 -75 -71 -31 -19 -13 0
-89 -76 -71 -34 -19 -13 0
-90 -77 -71 -37 -19 -13 0
-91 -73 -72 -25 -22 -13 0
-92 -74 -72 -28 -22 -13 0
-93 -75 -72 -31 -22 -13 0
-94 -76 -72 -34 -22 -13 0
-95 -77 -72 -37 -22 -13 0
-96 -74 -73 -28 -25 -13 0
-97 -75 -73 -31 -25 -13 0
-98 -76 -73 -34 -25 -13 0
-99 -77 -73 -37 -25 -13 0
-100 -75 -74 -31 -28 -13 0
-101 -76 -74 -34 -28 -13 0
-102 -77 -74 -37 -28 -13 0
-103 -76 -75 -34 -31 -13 0
-104 -77 -75 -37 -31 -13 0
-105 -77 -76 -37 -34 -13 0
-85 -79 -78 -22 -19 -16 0
-86 -80 -78 -25 -19 -16 0
-87 -81 -78 -28 -19 -16 0
-88 -82 -78 -31 -19 -16 0
-89 -83 -78 -34 -19 -16 0
-90 -84 -78 -37 -19 -16 0
-91 -80 -79 -25 -22 -16 0
-92 -81 -79 -28 -22 -16 0
-93 -82 -79 -31 -22 -16 0
-94 -83 -79 -34 -22 -16 0
-95 -84 -79 -37 -22 -16 0
-96 -81 -80 -28 -25 -16 0
-97 -82 -80 -31 -25 -16 0
-98 -83 -80 -34 -25 -16 0
-99 -84 -80 -37 -25 -16 0
-100 -82 -81 -31 -28 -16 0
-101 -83 -81 -34 -28 -16 0
-102 -84 -81 -37 -28 -16 0
-103 -83 -82 -34 -31 -16 0
-104 -84 -82 -37 -31 -16 0
-105 -84 -83 -37 -34 -16 0
-91 -86 -85 -25 -22 -19 0
-92 -87 -85 -28 -22 -19 0
-93 -88 -85 -31 -22 -19 0
-94 -89 -85 -34 -22 -19 0
-95 -90 -85 -37 -22 -19 0
-96 -87 -86 -28 -25 -19 0
-97 -88 -86 -31 -25 -19 0
-98 -89 -86 -34 -25 -19 0
-99 -90 -86 -37 -25 -19 0
-100 -88 -87 -31 -28 -19 0
-101 -89 -87 -34 -28 -19 0
-102 -90 -87 -37 -28 -19 0
-103 -89 -88 -34 -31 -19 0
-104 -90 -88 -37 -31 -19 0
-105 -90 -89 -37 -34 -19 0
-96 -92 -91 -28 -25 -22 0
-97 -93 -91 -31 -25 -22 0
-98 -94 -91 -34 -25 -22 0
-99 -95 -91 -37 -25 -22 0
-100 -93 -92 -31 -28 -22 0
-101 -94 -92 -34 -28 -22 0
-102 -95 -92 -37 -28 -22 0
-103 -94 -93 -34 -31 -22 0
-104 -95 -93 -37 -31 -22 0
-105 -95 -94 -37 -34 -22 0
-100 -97 -96 -31 -28 -25 0
-101 -98 -96 -34 -28 -25 0
-102 -99 -96 -37 -28 -25 0
-103 -98 -97 -34 -31 -25 0
-104 -99 -97 -37 -31 -25 0
-105 -99 -98 -37 -34 -25 0
-103 -101 -100 -34 -31 -28 0
-104 -102 -100 -37 -31 -28 0
-105 -102 -101 -37 -34 -28 0
-105 -104 -103 -37 -34 -31 0
-61 -52 -51 -42 -41 -40 0
-62 -53 -51 -43 -41 -40 0
-63 -54 -51 -44 -41 -40 0
-64 -55 -51 -45 -41 -40 0
-65 -56 -51 -46 -41 -40 0
-66 -57 -51 -47 -41 -40 0
-67 -58 -51 -48 -41 -40 0
-68 -59 -51 -49 -41 -40 0
-69 -60 -51 -50 -41 -40 0
-70 -53 -52 -43 -42 -40 0
-71 -54 -52 -44 -42 -40 0
-72 -55 -52 -45 -42 -40 0
-73 -56 -52 -46 -42 -40 0
-74 -57 -52 -47 -42 -40 0
-75 -58 -52 -48 -42 -40 0
-76 -59 -52 -49 -42 -40 0
-77 -60 -52 -50 -42 -40 0
-78 -54 -53 -44 -43 -40 0
-79 -55 -53 -45 -43 -40 0
-80 -56 -53 -46 -43 -40 0
-81 -57 -53 -47 -43 -40 0
-82 -58 -53 -48 -43 -40 0
-83 -59 -53 -49 -43 -40 0
-84 -60 -53 -50 -43 -40 0
-85 -55 -54 -45 -44 -40 0
-86 -56 -54 -46 -44 -40 0
-87 -57 -54 -47 -44 -40 0
-88 -58 -54 -48 -44 -40 0
-89 -59 -54 -49 -44 -40 0
-90 -60 -54 -50 -44 -40 0
-91 -56 -55 -46 -45 -40 0
-92 -57 -55 -47 -45 -40 0
-93 -58 -55 -48 -45 -40 0
-94 -59 -55 -49 -45 -40 0
-95 -60 -55 -50 -45 -40 0
-96 -57 -56 -47 -46 -40 0
-97 -58 -56 -48 -46 -40 0
-98 -59 -56 -49 -46 -40 0
-99 -60 -56 -50 -46 -40 0
-100 -58 -57 -48 -47 -40 0
-101 -59 -57 -49 -47 -40 0
-102 -60 -57 -50 -47 -40 0
-103 -59 -58 -49 -48 -40 0
-104 -60 -58 -50 -48 -40 0
-105 -60 -59 -50 -49 -40 0
-70 -62 -61 -43 -42 -41 0
-71 -63 -61 -44 -42 -41 0
-72 -64 -61 -45 -42 -41 0
-73 -65 -61 -46 -42 -41 0
-74 -66 -61 -47 -42 -41 0
-75 -67 -61 -48 -42 -41 0
-76 -68 -61 -49 -42 -41 0
-77 -69 -61 -50 -42 -41 0
-78 -63 -62 -44 -43 -41 0
-79 -64 -62 -45 -43 -41 0
-80 -65 -62 -46 -43 -41 0
-81 -66 -62 -47 -43 -41 0
-82 -67 -62 -48 -43 -41 0
-83 -68 -62 -49 -43 -41 0
-84 -69 -62 -50 -43 -41 0
-85 -64 -63 -45 -44 -41 0
-86 -65 -63 -46 -44 -41 0
-87 -66 -63 -47 -44 -41 0
-88 -67 -63 -48 -44 -41 0
-89 -68 -63 -49 -44 -41 0
-90 -69 -63 -50 -44 -41 0
-91 -65 -64 -46 -45 -41 0
-92 -66 -64 -47 -45 -41 0
-93 -67 -64 -48 -45 -41 0
-94 -68 -64 -49 -45 -41 0
-95 -69 -64 -50 -45 -41 0
-96 -66 -65 -47 -46 -41 0
-97 -67 -65 -48 -46 -41 0
-98 -68 -65 -49 -46 -41 0
-99 -69 -65 -50 -46 -41 0
-100 -67 -66 -48 -47 -41 0
-101 -68 -66 -49 -47 -41 0
-102 -69 -66 -50 -47 -41 0
-103 -68 -67 -49 -48 -41 0
-104 -69 -67 -50 -48 -41 0
-105 -69 -68 -50 -49 -41 0
-78 -71 -70 -44 -43 -42 0
-79 -72 -70 -45 -43 -42 0
-80 -73 -70 -46 -43 -42 0
-81 -74 -70 -47 -43 -42 0
-82 -75 -70 -48 -43 -42 0
-83 -76 -70 -49 -43 -42 0
-84 -77 -70 -50 -43 -42 0
-85 -72 -71 -45 -44 -42 0
-86 -73 -71 -46 -44 -42 0
-87 -74 -71 -47 -44 -42 0
-88 -75 -71 -48 -44 -42 0
-89 -76 -71 -49 -44 -42 0
-90 -77 -71 -50 -44 -42 0
-91 -73 -72 -46 -45 -42 0
-92 -74 -72 -47 -45 -42 0
-93 -75 -72 -48 -45 -42 0
-94 -76 -72 -49 -45 -42 0
-95 -77 -72 -50 -45 -42 0
-96 -74 -73 -47 -46 -42 0
-97 -75 -73 -48 -46 -42 0
-98 -76 -73 -49 -46 -42 0
-99 -77 -73 -50 -46 -42 0
-100 -75 -74 -48 -47 -42 0
-101 -76 -74 -49 -47 -42 0
-102 -77 -74 -50 -47 -42 0
-103 -76 -75 -49 -48 -42 0
-104 -77 -75 -50 -48 -42 0
-105 -77 -76 -50 -49 -42 0
-85 -79 -78 -45 -44 -43 0
-86 -80 -78 -46 -44 -43 0
-87 -81 -78 -47 -44 -43 0
-88 -82 -78 -48 -44 -43 0
-89 -83 -78 -49 -44 -43 0
-90 -84 -78 -50 -44 -43 0
-91 -80 -79 -46 -45 -43 0
-92 -81 -79 -47 -45 -43 0
-93 -82 -79 -48 -45 -43 0
-94 -83 -79 -49 -45 -43 0
-95 -84 -79 -50 -45 -43 0
-96 -81 -80 -47 -46 -43 0
-97 -82 -80 -48 -46 -43 0
-98 -83 -80 -49 -46 -43 0
-99 -84 -80 -50 -46 -43 0
-100 -82 -81 -48 -47 -43 0
-101 -83 -81 -49 -47 -43 0
-102 -84 -81 -50 -47 -43 0
-103 -83 -82 -49 -48 -43 0
-104 -84 -82 -50 -48 -43 0
-105 -84 -83 -50 -49 -43 0
-91 -86 -85 -46 -45 -44 0
-92 -87 -85 -47 -45 -44 0
-93 -88 -85 -48 -45 -44 0
-94 -89 -85 -49 -45 -44 0
-95 -90 -85 -50 -45 -44 0
-96 -87 -86 -47 -46 -44 0
-97 -88 -86 -48 -46 -44 0
-98 -89 -86 -49 -46 -44 0
-99 -90 -86 -50 -46 -44 0
-100 -88 -87 -48 -47 -44 0
-101 -89 -87 -49 -47 -44 0
-102 -90 -87 -50 -47 -44 0
-103 -89 -88 -49 -48 -44 0
-104 -90 -88 -50 -48 -44 0
-105 -90 -89 -50 -49 -44 0
-96 -92 -91 -47 -46 -45 0
-97 -93 -91 -48 -46 -45 0
-98 -94 -91 -49 -46 -45 0
-99 -95 -91 -50 -46 -45 0
-100 -93 -92 -48 -47 -45 0
-101 -94 -92 -49 -47 -45 0
-102 -95 -92 -50 -47 -45 0
-103 -94 -93 -49 -48 -45 0
-104 -95 -93 -50 -48 -45 0
-105 -95 -94 -50 -49 -45 0
-100 -97 -96 -48 -47 -46 0
-101 -98 -96 -49 -47 -46 0
-102 -99 -96 -50 -47 -46 0
-103 -98 -97 -49 -48 -46 0
-104 -99 -97 -50 -48 -46 0
-105 -99 -98 -50 -49 -46 0
-103 -101 -100 -49 -48 -47 0
-104 -102 -100 -50 -48 -47 0
-105 -102 -101 -50 -49 -47 0
-105 -104 -103 -50 -49 -48 0
-70 -62 -61 -53 -52 -51 0
-71 -63 -61 -54 -52 -51 0
-72 -64 -61 -55 -52 -51 0
-73 -65 -61 -56 -52 -51 0
-74 -66 -61 -57 -52 -51 0
-75 -67 -61 -58 -52 -51 0
-76 -68 -61 -59 -52 -51 0
-77 -69 -61 -60 -52 -51 0
-78 -63 -62 -54 -53 -51 0
-79 -64 -62 -55 -53 -51 0
-80 -65 -62 -56 -53 -51 0
-81 -66 -62 -57 -53 -51 0
-82 -67 -62 -58 -53 -51 0
-83 -68 -62 -59 -53 -51 0
-84 -69 -62 -60 -53 -51 0
-85 -64 -63 -55 -54 -51 0
-86 -65 -63 -56 -54 -51 0
-87 -66 -63 -57 -54 -51 0
-88 -67 -63 -58 -54 -51 0
-89 -68 -63 -59 -54 -51 0
-90 -69 -63 -60 -54 -51 0
-91 -65 -64 -56 -55 -51 0
-92 -66 -64 -57 -55 -51 0
-93 -67 -64 -58 -55 -51 0
-94 -68 -64 -59 -55 -51 0
-95 -69 -64 -60 -55 -51 0
-96 -66 -65 -57 -56 -51 0
-97 -67 -65 -58 -56 -51 0
-98 -68 -65 -59 -56 -51 0
-99 -69 -65 -60 -56 -51 0
-100 -67 -66 -58 -57 -51 0
-101 -68 -66 -59 -57 -51 0
-102 -69 -66 -60 -57 -51 0
-103 -68 -67 -59 -58 -51 0
-104 -69 -67 -60 -58 -51 0
-105 -69 -68 -60 -59 -51 0
-78 -71 -70 -54 -53 -52 0
-79 -72 -70 -55 -53 -52 0
-80 -73 -70 -56 -53 -52 0
-81 -74 -70 -57 -53 -52 0
-82 -75 -70 -58 -53 -52 0
-83 -76 -70 -59 -53 -52 0
-84 -77 -70 -60 -53 -52 0
-85 -72 -71 -55 -54 -52 0
-86 -73 -71 -56 -54 -52 0
-87 -74 -71 -57 -54 -52 0
-88 -75 -71 -58 -54 -52 0
-89 -76 -71 -59 -54 -52 0
-90 -77 -71 -60 -54 -52 0
-91 -73 -72 -56 -55 -52 0
-92 -74 -72 -57 -55 -52 0
-93 -75 -72 -58 -55 -52 0
-94 -76 -72 -59 -55 -52 0
-95 -77 -72 -60 -55 -52 0
-96 -74 -73 -57 -56 -52 0
-97 -75 -73 -58 -56 -52 0
-98 -76 -73 -59 -56 -52 0
-99 -77 -73 -60 -56 -52 0
-100 -75 -74 -58 -57 -52 0
-101 -76 -74 -59 -57 -52 0
-102 -77 -74 -60 -57 -52 0
-103 -76 -75 -59 -58 -52 0
-104 -77 -75 -60 -58 -52 0
-105 -77 -76 -60 -59 -52 0
-85 -79 -78 -55 -54 -53 0
-86 -80 -78 -56 -54 -53 0
-87 -81 -78 -57 -54 -53 0
-88 -82 -78 -58 -54 -53 0
-89 -83 -78 -59 -54 -53 0
-90 -84 -78 -60 -54 -53 0
-91 -80 -79 -56 -55 -53 0
-92 -81 -79 -57 -55 -53 0
-93 -82 -79 -58 -55 -53 0
-94 -83 -79 -59 -55 -53 0
-95 -84 -79 -60 -55 -53 0
-96 -81 -80 -57 -56 -53 0
-97 -82 -80 -58 -56 -53 0
-98 -83 -80 -59 -56 -53 0
-99 -84 -80 -60 -56 -53 0
-100 -82 -81 -58 -57 -53 0
-101 -83 -81 -59 -57 -53 0
-102 -84 -81 -60 -57 -53 0
-103 -83 -82 -59 -58 -53 0
-104 -84 -82 -60 -58 -53 0
-105 -84 -83 -60 -59 -53 0
-91 -86 -85 -56 -55 -54 0
-92 -87 -85 -57 -55 -54 0
-93 -88 -85 -58 -55 -54 0
-94 -89 -85 -59 -55 -54 0
-95 -90 -85 -60 -55 -54 0
-96 -87 -86 -57 -56 -54 0
-97 -88 -86 -58 -56 -54 0
-98 -89 -86 -59 -56 -54 0
-99 -90 -86 -60 -56 -54 0
-100 -88 -87 -58 -57 -54 0
-101 -89 -87 -59 -57 -54 0
-102 -90 -87 -60 -57 -54 0
-103 -89 -88 -59 -58 -54 0
-104 -90 -88 -60 -58 -54 0
-105 -90 -89 -60 -59 -54 0
-96 -92 -91 -57 -56 -55 0
-97 -93 -91 -58 -56 -55 0
-98 -94 -91 -59 -56 -55 0
-99 -95 -91 -60 -56 -55 0
-100 -93 -92 -58 -57 -55 0
-101 -94 -92 -59 -57 -55 0
-102 -95 -92 -60 -57 -55 0
-103 -94 -93 -59 -58 -55 0
-104 -95 -93 -60 -58 -55 0
-105 -95 -94 -60 -59 -55 0
-100 -97 -96 -58 -57 -56 0
-101 -98 -96 -59 -57 -56 0
-102 -99 -96 -60 -57 -56 0
-103 -98 -97 -59 -58 -56 0
-104 -99 -97 -60 -58 -56 0
-105 -99 -98 -60 -59 -56 0
-103 -101 -100 -59 -58 -57 0
-104 -102 -100 -60 -58 -57 0
-105 -102 -101 -60 -59 -57 0
-105 -104 -103 -60 -59 -58 0
-78 -71 -70 -63 -62 -61 0
-79 -72 -70 -64 -62 -61 0
-80 -73 -70 -65 -62 -61 0
-81 -74 -70 -66 -62 -61 0
-82 -75 -70 -67 -62 -61 0
-83 -76 -70 -68 -62 -61 0
-84 -77 -70 -69 -62 -61 0
-85 -72 -71 -64 -63 -61 0
-86 -73 -71 -65 -63 -61 0
-87 -74 -71 -66 -63 -61 0
-88 -75 -71 -67 -63 -61 0
-89 -76 -71 -68 -63 -61 0
-90 -77 -71 -69 -63 -61 0
-91 -73 -72 -65 -64 -61 0
-92 -74 -72 -66 -64 -61 0
-93 -75 -72 -67 -64 -61 0
-94 -76 -72 -68 -64 -61 0
-95 -77 -72 -69 -64 -61 0
-96 -74 -73 -66 -65 -61 0
-97 -75 -73 -67 -65 -61 0
-98 -76 -73 -68 -65 -61 0
-99 -77 -73 -69 -65 -61 0
-100 -75 -74 -67 -66 -61 0
-101 -76 -74 -68 -66 -61 0
-102 -77 -74 -69 -66 -61 0
-103 -76 -75 -68 -67 -61 0
-104 -77 -75 -69 -67 -61 0
-105 -77 -76 -69 -68 -61 0
-85 -79 -78 -64 -63 -62 0
-86 -80 -78 -65 -63 -62 0
-87 -81 -78 -66 -63 -62 0
-88 -82 -78 -67 -63 -62 0
-89 -83 -78 -68 -63 -62 0
-90 -84 -78 -69 -63 -62 0
-91 -80 -79 -65 -64 -62 0
-92 -81 -79 -66 -64 -62 0
-93 -82 -79 -67 -64 -62 0
-94 -83 -79 -68 -64 -62 0
-95 -84 -79 -69 -64 -62 0
-96 -81 -80 -66 -65 -62 0
-97 -82 -80 -67 -65 -62 0
-98 -83 -80 -68 -65 -62 0
-99 -84 -80 -69 -65 -62 0
-100 -82 -81 -67 -66 -62 0
-101 -83 -81 -68 -66 -62 0
-102 -84 -81 -69 -66 -62 0
-103 -83 -82 -68 -67 -62 0
-104 -84 -82 -69 -67 -62 0
-105 -84 -83 -69 -68 -62 0
-91 -86 -85 -65 -64 -63 0
-92 -87 -85 -66 -64 -63 0
-93 -88 -85 -67 -64 -63 0
-94 -89 -85 -68 -64 -63 0
-95 -90 -85 -69 -64 -63 0
-96 -87 -86 -66 -65 -63 0
-97 -88 -86 -67 -65 -63 0
-98 -89 -86 -68 -65 -63 0
-99 -90 -86 -69 -65 -63 0
-100 -88 -87 -67 -66 -63 0
-101 -89 -87 -68 -66 -63 0
-102 -90 -87 -69 -66 -63 0
-103 -89 -88 -68 -67 -63 0
-104 -90 -88 -69 -67 -63 0
-105 -90 -89 -69 -68 -63 0
-96 -92 -91 -66 -65 -64 0
-97 -93 -91 -67 -65 -64 0
-98 -94 -91 -68 -65 -64 0
-99 -95 -91 -69 -65 -64 0
-100 -93 -92 -67 -66 -64 0
-101 -94 -92 -68 -66 -64 0
-102 -95 -92 -69 -66 -64 0
-103 -94 -93 -68 -67 -64 0
-104 -95 -93 -69 -67 -64 0
-105 -95 -94 -69 -68 -64 0
-100 -97 -96 -67 -66 -65 0
-101 -98 -96 -68 -66 -65 0
-102 -99 -96 -69 -66 -65 0
-103 -98 -97 -68 -67 -65 0
-104 -99 -97 -69 -67 -65 0
-105 -99 -98 -69 -68 -65 0
-103 -101 -100 -68 -67 -66 0
-104 -102 -100 -69 -67 -66 0
-105 -102 -101 -69 -68 -66 0
-105 -104 -103 -69 -68 -67 0
-85 -79 -78 -72 -71 -70 0
-86 -80 -78 -73 -71 -70 0
-87 -81 -78 -74 -71 -70 0
-88 -82 -78 -75 -71 -70 0
-89 -83 -78 -76 -71 -70 0
-90 -84 -78 -77 -71 -70 0
-91 -80 -79 -73 -72 -70 0
-92 -81 -79 -74 -72 -70 0
-93 -82 -79 -75 -72 -70 0
-94 -83 -79 -76 -72 -70 0
-95 -84 -79 -77 -72 -70 0
-96 -81 -80 -74 -73 -70 0
-97 -82 -80 -75 -73 -70 0
-98 -83 -80 -76 -73 -70 0
-99 -84 -80 -77 -73 -70 0
-100 -82 -81 -75 -74 -70 0
-101 -83 -81 -76 -74 -70 0
-102 -84 -81 -77 -74 -70 0
-103 -83 -82 -76 -75 -70 0
-104 -84 -82 -77 -75 -70 0
-105 -84 -83 -77 -76 -70 0
-91 -86 -85 -73 -72 -71 0
-92 -87 -85 -74 -72 -71 0
-93 -88 -85 -75 -72 -71 0
-94 -89 -85 -76 -72 -71 0
-95 -90 -85 -77 -72 -71 0
-96 -87 -86 -74 -73 -71 0
-97 -88 -86 -75 -73 -71 0
-98 -89 -86 -76 -73 -71 0
-99 -90 -86 -77 -73 -71 0
-100 -88 -87 -75 -74 -71 0
-101 -89 -87 -76 -74 -71 0
-102 -90 -87 -77 -74 -71 0
-103 -89 -88 -76 -75 -71 0
-104 -90 -88 -77 -75 -71 0
-105 -90 -89 -77 -76 -71 0
-96 -92 -91 -74 -73 -72 0
-97 -93 -91 -75 -73 -72 0
-98 -94 -91 -76 -73 -72 0
-99 -95 -91 -77 -73 -72 0
-100 -93 -92 -75 -74 -72 0
-101 -94 -92 -76 -74 -72 0
-102 -95 -92 -77 -74 -72 0
-103 -94 -93 -76 -75 -72 0
-104 -95 -93 -77 -75 -72 0
-105 -95 -94 -77 -76 -72 0
-100 -97 -96 -75 -74 -73 0
-101 -98 -96 -76 -74 -73 0
-102 -99 -96 -77 -74 -73 0
-103 -98 -97 -76 -75 -73 0
-104 -99 -97 -77 -75 -73 0
-105 -99 -98 -77 -76 -73 0
-103 -101 -100 -76 -75 -74 0
-104 -102 -100 -77 -75 -74 0
-105 -102 -101 -77 -76 -74 0
-105 -104 -103 -77 -76 -75 0
-91 -86 -85 -80 -79 -78 0
-92 -87 -85 -81 -79 -78 0
-93 -88 -85 -82 -79 -78 0
-94 -89 -85 -83 -79 -78 0
-95 -90 -85 -84 -79 -78 0
-96 -87 -86 -81 -80 -78 0
-97 -88 -86 -82 -80 -78 0
-98 -89 -86 -83 -80 -78 0
-99 -90 -86 -84 -80 -78 0
-100 -88 -87 -82 -81 -78 0
-101 -89 -87 -83 -81 -78 0
-102 -90 -87 -84 -81 -78 0
-103 -89 -88 -83 -82 -78 0
-104 -90 -88 -84 -82 -78 0
-105 -90 -89 -84 -83 -78 0
-96 -92 -91 -81 -80 -79 0
-97 -93 -91 -82 -80 -79 0
-98 -94 -91 -83 -80 -79 0
-99 -95 -91 -84 -80 -79 0
-100 -93 -92 -82 -81 -79 0
-101 -94 -92 -83 -81 -79 0
-102 -95 -92 -84 -81 -79 0
-103 -94 -93 -83 -82 -79 0
-104 -95 -93 -84 -82 -79 0
-105 -95 -94 -84 -83 -79 0
-100 -97 -96 -82 -81 -80 0
-101 -98 -96 -83 -81 -80 0
-102 -99 -96 -84 -81 -80 0
-103 -98 -97 -83 -82 -80 0
-104 -99 -97 -84 -82 -80 0
-105 -99 -98 -84 -83 -80 0
-103 -101 -100 -83 -82 -81 0
-104 -102 -100 -84 -82 -81 0
-105 -102 -101 -84 -83 -81 0
-105 -104 -103 -84 -83 -82 0
-96 -92 -91 -87 -86 -85 0
-97 -93 -91 -88 -86 -85 0
-98 -94 -91 -89 -86 -85 0
-99 -95 -91 -90 -86 -85 0
-100 -93 -92 -88 -87 -85 0
-101 -94 -92 -89 -87 -85 0
-102 -95 -92 -90 -87 -85 0
-103 -94 -93 -89 -88 -85 0
-104 -95 -93 -90 -88 -85 0
-105 -95 -94 -90 -89 -85 0
-100 -97 -96 -88 -87 -86 0
-101 -98 -96 -89 -87 -86 0
-102 -99 -96 -90 -87 -86 0
-103 -98 -97 -89 -88 -86 0
-104 -99 -97 -90 -88 -86 0
-105 -99 -98 -90 -89 -86 0
-103 -101 -100 -89 -88 -87 0
-104 -102 -100 -90 -88 -87 0
-105 -102 -101 -90 -89 -87 0
-105 -104 -103 -90 -89 -88 0
-100 -97 -96 -93 -92 -91 0
-101 -98 -96 -94 -92 -91 0
-102 -99 -96 -95 -92 -91 0
-103 -98 -97 -94 -93 -91 0
-104 -99 -97 -95 -93 -91 0
-105 -99 -98 -95 -94 -91 0
-103 -101 -100 -94 -93 -92 0
-104 -102 -100 -95 -93 -92 0
-105 -102 -101 -95 -94 -92 0
-105 -104 -103 -95 -94 -93 0
-103 -101 -100 -98 -97 -96 0
-104 -102 -100 -99 -97 -96 0
-105 -102 -101 -99 -98 -96 0
-105 -104 -103 -99 -98 -97 0
-105 -104 -103 -102 -101 -100 0
-106 -107 -108 -109 -110 -111 0
-112 -113 -108 -114 -110 -111 0
-115 -116 -108 -117 -110 -111 0
-118 -119 -108 -120 -110 -111 0
-121 -122 -108 -123 -110 -111 0
-124 -125 -108 -126 -110 -111 0
-127 -128 -108 -129 -110 -111 0
-130 -131 -108 -132 -110 -111 0
-133 -134 -108 -135 -110 -111 0
-136 -137 -108 -138 -110 -111 0
-139 -140 -108 -141 -110 -111 0
-142 -143 -108 -144 -110 -111 0
-145 -113 -107 -114 -109 -111 0
-146 -116 -107 -117 -109 -111 0
-147 -119 -107 -120 -109 -111 0
-148 -122 -107 -123 -109 -111 0
-149 -125 -107 -126 -109 -111 0
-150 -128 -107 -129 -109 -111 0
-151 -131 -107 -132 -109 -111 0
-152 -134 -107 -135 -109 -111 0
-153 -137 -107 -138 -109 -111 0
-154 -140 -107 -141 -109 -111 0
-155 -143 -107 -144 -109 -111 0
-156 -116 -113 -117 -114 -111 0
-157 -119 -113 -120 -114 -111 0
-158 -122 -113 -123 -114 -111 0
-159 -125 -113 -126 -114 -111 0
-160 -128 -113 -129 -114 -111 0
-161 -131 -113 -132 -114 -111 0
-162 -134 -113 -135 -114 -111 0
-163 -137 -113 -138 -114 -111 0
-164 -140 -113 -141 -114 -111 0
-165 -143 -113 -144 -114 -111 0
-166 -119 -116 -120 -117 -111 0
-167 -122 -116 -123 -117 -111 0
-168 -125 -116 -126 -117 -111 0
-169 -128 -116 -129 -117 -111 0
-170 -131 -116 -132 -117 -111 0
-171 -134 -116 -135 -117 -111 0
-172 -137 -116 -138 -117 -111 0
-173 -140 -116 -141 -117 -111 0
-174 -143 -116 -144 -117 -111 0
-175 -122 -119 -123 -120 -111 0
-176 -125 -119 -126 -120 -111 0
-177 -128 -119 -129 -120 -111 0
-178 -131 -119 -132 -120 -111 0
-179 -134 -119 -135 -120 -111 0
-180 -137 -119 -138 -120 -111 0
-181 -140 -119 -141 -120 -111 0
-182 -143 -119 -144 -120 -111 0
-183 -125 -122 -126 -123 -111 0
-184 -128 -122 -129 -123 -111 0
-185 -131 -122 -132 -123 -111 0
-186 -134 -122 -135 -123 -111 0
-187 -137 -122 -138 -123 -111 0
-188 -140 -122 -141 -123 -111 0
-189 -143 -122 -144 -123 -111 0
-190 -128 -125 -129 -126 -111 0
-191 -131 -125 -132 -126 -111 0
-192 -134 -125 -135 -126 -111 0
-193 -137 -125 -138 -126 -111 0
-194 -140 -125 -141 -126 -111 0
-195 -143 -125 -144 -126 -111 0
-196 -131 -128 -132 -129 -111 0
-197 -134 -128 -135 -129 -111 0
-198 -137 -128 -138 -129 -111 0
-199 -140 -128 -141 -129 -111 0
-200 -143 -128 -144 -129 -111 0
-201 -134 -131 -135 -132 -111 0
-202 -137 -131 -138 -132 -111 0
-203 -140 -131 -141 -132 -111 0
-204 -143 -131 -144 -132 -111 0
-205 -137 -134 -138 -135 -111 0
-206 -140 -134 -141 -135 -111 0
-207 -143 -134 -144 -135 -111 0
-208 -140 -137 -141 -138 -111 0
-209 -143 -137 -144 -138 -111 0
-210 -143 -140 -144 -141 -111 0
-145 -112 -106 -114 -109 -110 0
-146 -115 -106 -117 -109 -110 0
-147 -118 -106 -120 -109 -110 0
-148 -121 -106 -123 -109 -110 0
-149 -124 -106 -126 -109 -110 0
-150 -127 -106 -129 -109 -110 0
-151 -130 -106 -132 -109 -110 0
-152 -133 -106 -135 -109 -110 0
-153 -136 -106 -138 -109 -110 0
-154 -139 -106 -141 -109 -110 0
-155 -142 -106 -144 -109 -110 0
-156 -115 -112 -117 -114 -110 0
-157 -118 -112 -120 -114 -110 0
-158 -121 -112 -123 -114 -110 0
-159 -124 -112 -126 -114 -110 0
-160 -127 -112 -129 -114 -110 0
-161 -130 -112 -132 -114 -110 0
-162 -133 -112 -135 -114 -110 0
-163 -136 -112 -138 -114 -110 0
-164 -139 -112 -141 -114 -110 0
-165 -142 -112 -144 -114 -110 0
-166 -118 -115 -120 -117 -110 0
-167 -121 -115 -123 -117 -110 0
-168 -124 -115 -126 -117 -110 0
-169 -127 -115 -129 -117 -110 0
-170 -130 -115 -132 -117 -110 0
-171 -133 -115 -135 -117 -110 0
-172 -136 -115 -138 -117 -110 0
-173 -139 -115 -141 -117 -110 0
-174 -142 -115 -144 -117 -110 0
-175 -121 -118 -123 -120 -110 0
-176 -124 -118 -126 -120 -110 0
-177 -127 -118 -129 -120 -110 0
-178 -130 -118 -132 -120 -110 0
-179 -133 -118 -135 -120 -110 0
-180 -136 -118 -138 -120 -110 0
-181 -139 -118 -141 -120 -110 0
-182 -142 -118 -144 -120 -110 0
-183 -124 -121 -126 -123 -110 0
-184 -127 -121 -129 -123 -110 0
-185 -130 -121 -132 -123 -110 0
-186 -133 -121 -135 -123 -110 0
-187 -136 -121 -138 -123 -110 0
-188 -139 -121 -141 -123 -110 0
-189 -142 -121 -144 -123 -110 0
-190 -127 -124 -129 -126 -110 0
-191 -130 -124 -132 -126 -110 0
-192 -133 -124 -135 -126 -110 0
-193 -136 -124 -138 -126 -110 0
-194 -139 -124 -141 -126 -110 0
-195 -142 -124 -144 -126 -110 0
-196 -130 -127 -132 -129 -110 0
-197 -133 -127 -135 -129 -110 0
-198 -136 -127 -138 -129 -110 0
-199 -139 -127 -141 -129 -110 0
-200 -142 -127 -144 -129 -110 0
-201 -133 -130 -135 -132 -110 0
-202 -136 -130 -138 -132 -110 0
-203 -139 -130 -141 -132 -110 0
-204 -142 -130 -144 -132 -110 0
-205 -136 -133 -138 -135 -110 0
-206 -139 -133 -141 -135 -110 0
-207 -142 -133 -144 -135 -110 0
-208 -139 -136 -141 -138 -110 0
-209 -142 -136 -144 -138 -110 0
-210 -142 -139 -144 -141 -110 0
-156 -146 -145 -117 -114 -109 0
-157 -147 -145 -120 -114 -109 0
-158 -148 -145 -123 -114 -109 0
-159 -149 -145 -126 -114 -109 0
-160 -150 -145 -129 -114 -109 0
-161 -151 -145 -132 -114 -109 0
-162 -152 -145 -135 -114 -109 0
-163 -153 -145 -138 -114 -109 0
-164 -154 -145 -141 -114 -109 0
-165 -155 -145 -144 -114 -109 0
-166 -147 -146 -120 -117 -109 0
-167 -148 -146 -123 -117 -109 0
-168 -149 -146 -126 -117 -109 0
-169 -150 -146 -129 -117 -109 0
-170 -151 -146 -132 -117 -109 0
-171 -152 -146 -135 -117 -109 0
-172 -153 -146 -138 -117 -109 0
-173 -154 -146 -141 -117 -109 0
-174 -155 -146 -144 -117 -109 0
-175 -148 -147 -123 -120 -109 0
-176 -149 -147 -126 -120 -109 0
-177 -150 -147 -129 -120 -109 0
-178 -151 -147 -132 -120 -109 0
-179 -152 -147 -135 -120 -109 0
-180 -153 -147 -138 -120 -109 0
-181 -154 -147 -141 -120 -109 0
-182 -155 -147 -144 -120 -109 0
-183 -149 -148 -126 -123 -109 0
-184 -150 -148 -129 -123 -109 0
-185 -151 -148 -132 -123 -109 0
-186 -152 -148 -135 -123 -109 0
-187 -153 -148 -138 -123 -109 0
-188 -154 -148 -141 -123 -109 0
-189 -155 -148 -144 -123 -109 0
-190 -150 -149 -129 -126 -109 0
-191 -151 -149 -132 -126 -109 0
-192 -152 -149 -135 -126 -109 0
-193 -153 -149 -138 -126 -109 0
-194 -154 -149 -141 -126 -109 0
-195 -155 -149 -144 -126 -109 0
-196 -151 -150 -132 -129 -109 0
-197 -152 -150 -135 -129 -109 0
-198 -153 -150 -138 -129 -109 0
-199 -154 -150 -141 -129 -109 0
-200 -155 -150 -144 -129 -109 0
-201 -152 -151 -135 -132 -109 0
-202 -153 -151 -138 -132 -109 0
-203 -154 -151 -141 -132 -109 0
-204 -155 -151 -144 -132 -109 0
-205 -153 -152 -138 -135 -109 0
-206 -154 -152 -141 -135 -109 0
-207 -155 -152 -144 -135 -109 0
-208 -154 -153 -141 -138 -109 0
-209 -155 -153 -144 -138 -109 0
-210 -155 -154 -144 -141 -109 0
-166 -157 -156 -120 -117 -114 0
-167 -158 -156 -123 -117 -114 0
-168 -159 -156 -126 -117 -114 0
-169 -160 -156 -129 -117 -114 0
-170 -161 -156 -132 -117 -114 0
-171 -162 -156 -135 -117 -114 0
-172 -163 -156 -138 -117 -114 0
-173 -164 -156 -141 -117 -114 0
-174 -165 -156 -144 -117 -114 0
-175 -158 -157 -123 -120 -114 0
-176 -159 -157 -126 -120 -114 0
-177 -160 -157 -129 -120 -114 0
-178 -161 -157 -132 -120 -114 0
-179 -162 -157 -135 -120 -114 0
-180 -163 -157 -138 -120 -114 0
-181 -164 -157 -141 -120 -114 0
-182 -165 -157 -144 -120 -114 0
-183 -159 -158 -126 -123 -114 0
-184 -160 -158 -129 -123 -114 0
-185 -161 -158 -132 -123 -114 0
-186 -162 -158 -135 -123 -114 0
-187 -163 -158 -138 -123 -114 0
-188 -164 -158 -141 -123 -114 0
-189 -165 -158 -144 -123 -114 0
-190 -160 -159 -129 -126 -114 0
-191 -161 -159 -132 -126 -114 0
-192 -162 -159 -135 -126 -114 0
-193 -163 -159 -138 -126 -114 0
-194 -164 -159 -141 -126 -114 0
-195 -165 -159 -144 -126 -114 0
-196 -161 -160 -132 -129 -114 0
-197 -162 -160 -135 -129 -114 0
-198 -163 -160 -138 -129 -114 0
-199 -164 -160 -141 -129 -114 0
-200 -165 -160 -144 -129 -114 0
-201 -162 -161 -135 -132 -114 0
-202 -163 -161 -138 -132 -114 0
-203 -164 -161 -141 -132 -114 0
-204 -165 -161 -144 -132 -114 0
-205 -163 -162 -138 -135 -114 0
-206 -164 -162 -141 -135 -114 0
-207 -165 -162 -144 -135 -114 0
-208 -164 -163 -141 -138 -114 0
-209 -165 -163 -144 -138 -114 0
-210 -165 -164 -144 -141 -114 0
-175 -167 -166 -123 -120 -117 0
-176 -168 -166 -126 -120 -117 0
-177 -169 -166 -129 -120 -117 0
-178 -170 -166 -132 -120 -117 0
-179 -171 -166 -135 -120 -117 0
-180 -172 -166 -138 -120 -117 0
-181 -173 -166 -141 -120 -117 0
-182 -174 -166 -144 -120 -117 0
-183 -168 -167 -126 -123 -117 0
-184 -169 -167 -129 -123 -117 0
-185 -170 -167 -132 -123 -117 0
-186 -171 -167 -135 -123 -117 0
-187 -172 -167 -138 -123 -117 0
-188 -173 -167 -141 -123 -117 0
-189 -174 -167 -144 -123 -117 0
-190 -169 -168 -129 -126 -117 0
-191 -170 -168 -132 -126 -117 0
-192 -171 -168 -135 -126 -117 0
-193 -172 -168 -138 -126 -117 0
-194 -173 -168 -141 -126 -117 0
-195 -174 -168 -144 -126 -117 0
-196 -170 -169 -132 -129 -117 0
-197 -171 -169 -135 -129 -117 0
-198 -172 -169 -138 -129 -117 0
-199 -173 -169 -141 -129 -117 0
-200 -174 -169 -144 -129 -117 0
-201 -171 -170 -135 -132 -117 0
-202 -172 -170 -138 -132 -117 0
-203 -173 -170 -141 -132 -117 0
-204 -174 -170 -144 -132 -117 0
-205 -172 -171 -138 -135 -117 0
-206 -173 -171 -141 -135 -117 0
-207 -174 -171 -144 -135 -117 0
-208 -173 -172 -141 -138 -117 0
-209 -174 -172 -144 -138 -117 0
-210 -174 -173 -144 -141 -117 0
-183 -176 -175 -126 -123 -120 0
-184 -177 -175 -129 -123 -120 0
-185 -178 -175 -132 -123 -120 0
-186 -179 -175 -135 -123 -120 0
-187 -180 -175 -138 -123 -120 0
-188 -181 -175 -141 -123 -120 0
-189 -182 -175 -144 -123 -120 0
-190 -177 -176 -129 -126 -120 0
-191 -178 -176 -132 -126 -120 0
-192 -179 -176 -135 -126 -120 0
-193 -180 -176 -138 -126 -120 0
-194 -181 -176 -141 -126 -120 0
-195 -182 -176 -144 -126 -120 0
-196 -178 -177 -132 -129 -120 0
-197 -179 -177 -135 -129 -120 0
-198 -180 -177 -138 -129 -120 0
-199 -181 -177 -141 -129 -120 0
-200 -182 -177 -144 -129 -120 0
-201 -179 -178 -135 -132 -120 0
-202 -180 -178 -138 -132 -120 0
-203 -181 -178 -141 -132 -120 0
-204 -182 -178 -144 -132 -120 0
-205 -180 -179 -138 -135 -120 0
-206 -181 -179 -141 -135 -120 0
-207 -182 -179 -144 -135 -120 0
-208 -181 -180 -141 -138 -120 0
-209 -182 -180 -144 -138 -120 0
-210 -182 -181 -144 -141 -120 0
-190 -184 -183 -129 -126 -123 0
-191 -185 -183 -132 -126 -123 0
-192 -186 -183 -135 -126 -123 0
-193 -187 -183 -138 -126 -123 0
-194 -188 -183 -141 -126 -123 0
-195 -189 -183 -144 -126 -123 0
-196 -185 -184 -132 -129 -123 0
-197 -186 -184 -135 -129 -123 0
-198 -187 -184 -138 -129 -123 0
-199 -188 -184 -141 -129 -123 0
-200 -189 -184 -144 -129 -123 0
-201 -186 -185 -135 -132 -123 0
-202 -187 -185 -138 -132 -123 0
-203 -188 -185 -141 -132 -123 0
-204 -189 -185 -144 -132 -123 0
-205 -187 -186 -138 -135 -123 0
-206 -188 -186 -141 -135 -123 0
-207 -189 -186 -144 -135 -123 0
-208 -188 -187 -141 -138 -123 0
-209 -189 -187 -144 -138 -123 0
-210 -189 -188 -144 -141 -123 0
-196 -191 -190 -132 -129 -126 0
-197 -192 -190 -135 -129 -126 0
-198 -193 -190 -138 -129 -126 0
-199 -194 -190 -141 -129 -126 0
-200 -195 -190 -144 -129 -126 0
-201 -192 -191 -135 -132 -126 0
-202 -193 -191 -138 -132 -126 0
-203 -194 -191 -141 -132 -126 0
-204 -195 -191 -144 -132 -126 0
-205 -193 -192 -138 -135 -126 0
-206 -194 -192 -141 -135 -126 0
-207 -195 -192 -144 -135 -126 0
-208 -194 -193 -141 -138 -126 0
-209 -195 -193 -144 -138 -126 0
-210 -195 -194 -144 -141 -126 0
-201 -197 -196 -135 -132 -129 0
-202 -198 -196 -138 -132 -129 0
-203 -199 -196 -141 -132 -129 0
-204 -200 -196 -144 -132 -129 0
-205 -198 -197 -138 -135 -129 0
-206 -199 -197 -141 -135 -129 0
-207 -200 -197 -144 -135 -129 0
-208 -199 -198 -141 -138 -129 0
-209 -200 -198 -144 -138 -129 0
-210 -200 -199 -144 -141 -129 0
-205 -202 -201 -138 -135 -132 0
-206 -203 -201 -141 -135 -132 0
-207 -204 -201 -144 -135 -132 0
-208 -203 -202 -141 -138 -132 0
-209 -204 -202 -144 -138 -132 0
-210 -204 -203 -144 -141 -132 0
-208 -206 -205 -141 -138 -135 0
-209 -207 -205 -144 -138 -135 0
-210 -207 -206 -144 -141 -135 0
-210 -209 -208 -144 -141 -138 0
-145 -112 -106 -113 -107 -108 0
-146 -115 -106 -116 -107 -108 0
-147 -118 -106 -119 -107 -108 0
-148 -121 -106 -122 -107 -108 0
-149 -124 -106 -125 -107 -108 0
-150 -127 -106 -128 -107 -108 0
-151 -130 -106 -131 -107 -108 0
-152 -133 -106 -134 -107 -108 0
-153 -136 -106 -137 -107 -108 0
-154 -139 -106 -140 -107 -108 0
-155 -142 -106 -143 -107 -108 0
-156 -115 -112 -116 -113 -108 0
-157 -118 -112 -119 -113 -108 0
-158 -121 -112 -122 -113 -108 0
-159 -124 -112 -125 -113 -108 0
-160 -127 -112 -128 -113 -108 0
-161 -130 -112 -131 -113 -108 0
-162 -133 -112 -134 -113 -108 0
-163 -136 -112 -137 -113 -108 0
-164 -139 -112 -140 -113 -108 0
-165 -142 -112 -143 -113 -108 0
-166 -118 -115 -119 -116 -108 0
-167 -121 -115 -122 -116 -108 0
-168 -124 -115 -125 -116 -108 0
-169 -127 -115 -128 -116 -108 0
-170 -130 -115 -131 -116 -108 0
-171 -133 -115 -134 -116 -108 0
-172 -136 -115 -137 -116 -108 0
-173 -139 -115 -140 -116 -108 0
-174 -142 -115 -143 -116 -108 0
-175 -121 -118 -122 -119 -108 0
-176 -124 -118 -125 -119 -108 0
-177 -127 -118 -128 -119 -108 0
-178 -130 -118 -131 -119 -108 0
-179 -133 -118 -134 -119 -108 0
-180 -136 -118 -137 -119 -108 0
-181 -139 -118 -140 -119 -108 0
-182 -142 -118 -143 -119 -108 0
-183 -124 -121 -125 -122 -108 0
-184 -127 -121 -128 -122 -108 0
-185 -130 -121 -131 -122 -108 0
-186 -133 -121 -134 -122 -108 0
-187 -136 -121 -137 -122 -108 0
-188 -139 -121 -140 -122 -108 0
-189 -142 -121 -143 -122 -108 0
-190 -127 -124 -128 -125 -108 0
-191 -130 -124 -131 -125 -108 0
-192 -133 -124 -134 -125 -108 0
-193 -136 -124 -137 -125 -108 0
-194 -139 -124 -140 -125 -108 0
-195 -142 -124 -143 -125 -108 0
-196 -130 -127 -131 -128 -108 0
-197 -133 -127 -134 -128 -108 0
-198 -136 -127 -137 -128 -108 0
-199 -139 -127 -140 -128 -108 0
-200 -142 -127 -143 -128 -108 0
-201 -133 -130 -134 -131 -108 0
-202 -136 -130 -137 -131 -108 0
-203 -139 -130 -140 -131 -108 0
-204 -142 -130 -143 -131 -108 0
-205 -136 -133 -137 -134 -108 0
-206 -139 -133 -140 -134 -108 0
-207 -142 -133 -143 -134 -108 0
-208 -139 -136 -140 -137 -108 0
-209 -142 -136 -143 -137 -108 0
-210 -142 -139 -143 -140 -108 0
-156 -146 -145 -116 -113 -107 0
-157 -147 -145 -119 -113 -107 0
-158 -148 -145 -122 -113 -107 0
-159 -149 -145 -125 -113 -107 0
-160 -150 -145 -128 -113 -107 0
-161 -151 -145 -131 -113 -107 0
-162 -152 -145 -134 -113 -107 0
-163 -153 -145 -137 -113 -107 0
-164 -154 -145 -140 -113 -107 0
-165 -155 -145 -143 -113 -107 0
-166 -147 -146 -119 -116 -107 0
-167 -148 -146 -122 -116 -107 0
-168 -149 -146 -125 -116 -107 0
-169 -150 -146 -128 -116 -107 0
-170 -151 -146 -131 -116 -107 0
-171 -152 -146 -134 -116 -107 0
-172 -153 -146 -137 -116 -107 0
-173 -154 -146 -140 -116 -107 0
-174 -155 -146 -143 -116 -107 0
-175 -148 -147 -122 -119 -107 0
-176 -149 -147 -125 -119 -107 0
-177 -150 -147 -128 -119 -107 0
-178 -151 -147 -131 -119 -107 0
-179 -152 -147 -134 -119 -107 0
-180 -153 -147 -137 -119 -107 0
-181 -154 -147 -140 -119 -107 0
-182 -155 -147 -143 -119 -107 0
-183 -149 -148 -125 -122 -107 0
-184 -150 -148 -128 -122 -107 0
-185 -151 -148 -131 -122 -107 0
-186 -152 -148 -134 -122 -107 0
-187 -153 -148 -137 -122 -107 0
-188 -154 -148 -140 -122 -107 0
-189 -155 -148 -143 -122 -107 0
-190 -150 -149 -128 -125 -107 0
-191 -151 -149 -131 -125 -107 0
-192 -152 -149 -134 -125 -107 0
-193 -153 -149 -137 -125 -107 0
-194 -154 -149 -140 -125 -107 0
-195 -155 -149 -143 -125 -107 0
-196 -151 -150 -131 -128 -107 0
-197 -152 -150 -134 -128 -107 0
-198 -153 -150 -137 -128 -107 0
-199 -154 -150 -140 -128 -107 0
-200 -155 -150 -143 -128 -107 0
-201 -152 -151 -134 -131 -107 0
-202 -153 -151 -137 -131 -107 0
-203 -154 -151 -140 -131 -107 0
-204 -155 -151 -143 -131 -107 0
-205 -153 -152 -137 -134 -107 0
-206 -154 -152 -140 -134 -107 0
-207 -155 -152 -143 -134 -107 0
-208 -154 -153 -140 -137 -107 0
-209 -155 -153 -143 -137 -107 0
-210 -155 -154 -143 -140 -107 0
-166 -157 -156 -119 -116 -113 0
-167 -158 -156 -122 -116 -113 0
-168 -159 -156 -125 -116 -113 0
-169 -160 -156 -128 -116 -113 0
-170 -161 -156 -131 -116 -113 0
-171 -162 -156 -134 -116 -113 0
-172 -163 -156 -137 -116 -113 0
-173 -164 -156 -140 -116 -113 0
-174 -165 -156 -143 -116 -113 0
-175 -158 -157 -122 -119 -113 0
-176 -159 -157 -125 -119 -113 0
-177 -160 -157 -128 -119 -113 0
-178 -161 -157 -131 -119 -113 0
-179 -162 -157 -134 -119 -113 0
-180 -163 -157 -137 -119 -113 0
-181 -164 -157 -140 -119 -113 0
-182 -165 -157 -143 -119 -113 0
-183 -159 -158 -125 -122 -113 0
-184 -160 -158 -128 -122 -113 0
-185 -161 -158 -131 -122 -113 0
-186 -162 -158 -134 -122 -113 0
-187 -163 -158 -137 -122 -113 0
-188 -164 -158 -140 -122 -113 0
-189 -165 -158 -143 -122 -113 0
-190 -160 -159 -128 -125 -113 0
-191 -161 -159 -131 -125 -113 0
-192 -162 -159 -134 -125 -113 0
-193 -163 -159 -137 -125 -113 0
-194 -164 -159 -140 -125 -113 0
-195 -165 -159 -143 -125 -113 0
-196 -161 -160 -131 -128 -113 0
-197 -162 -160 -134 -128 -113 0
-198 -163 -160 -137 -128 -113 0
-199 -164 -160 -140 -128 -113 0
-200 -165 -160 -143 -128 -113 0
-201 -162 -161 -134 -131 -113 0
-202 -163 -161 -137 -131 -113 0
-203 -164 -161 -140 -131 -113 0
-204 -165 -161 -143 -131 -113 0
-205 -163 -162 -137 -134 -113 0
-206 -164 -162 -140 -134 -113 0
-207 -165 -162 -143 -134 -113 0
-208 -164 -163 -140 -137 -113 0
-209 -165 -163 -143 -137 -113 0
-210 -165 -164 -143 -140 -113 0
-175 -167 -166 -122 -119 -116 0
-176 -168 -166 -125 -119 -116 0
-177 -169 -166 -128 -119 -116 0
-178 -170 -166 -131 -119 -116 0
-179 -171 -166 -134 -119 -116 0
-180 -172 -166 -137 -119 -116 0
-181 -173 -166 -140 -119 -116 0
-182 -174 -166 -143 -119 -116 0
-183 -168 -167 -125 -122 -116 0
-184 -169 -167 -128 -122 -116 0
-185 -170 -167 -131 -122 -116 0
-186 -171 -167 -134 -122 -116 0
-187 -172 -167 -137 -122 -116 0
-188 -173 -167 -140 -122 -116 0
-189 -174 -167 -143 -122 -116 0
-190 -169 -168 -128 -125 -116 0
-191 -170 -168 -131 -125 -116 0
-192 -171 -168 -134 -125 -116 0
-193 -172 -168 -137 -125 -116 0
-194 -173 -168 -140 -125 -116 0
-195 -174 -168 -143 -125 -116 0
-196 -170 -169 -131 -128 -116 0
-197 -171 -169 -134 -128 -116 0
-198 -172 -169 -137 -128 -116 0
-199 -173 -169 -140 -128 -116 0
-200 -174 -169 -143 -128 -116 0
-201 -171 -170 -134 -131 -116 0
-202 -172 -170 -137 -131 -116 0
-203 -173 -170 -140 -131 -116 0
-204 -174 -170 -143 -131 -116 0
-205 -172 -171 -137 -134 -116 0
-206 -173 -171 -140 -134 -116 0
-207 -174 -171 -143 -134 -116 0
-208 -173 -172 -140 -137 -116 0
-209 -174 -172 -143 -137 -116 0
-210 -174 -173 -143 -140 -116 0
-183 -176 -175 -125 -122 -119 0
-184 -177 -175 -128 -122 -119 0
-185 -178 -175 -131 -122 -119 0
-186 -179 -175 -134 -122 -119 0
-187 -180 -175 -137 -122 -119 0
-188 -181 -175 -140 -122 -119 0
-189 -182 -175 -143 -122 -119 0
-190 -177 -176 -128 -125 -119 0
-191 -178 -176 -131 -125 -119 0
-192 -179 -176 -134 -125 -119 0
-193 -180 -176 -137 -125 -119 0
-194 -181 -176 -140 -125 -119 0
-195 -182 -176 -143 -125 -119 0
-196 -178 -177 -131 -128 -119 0
-197 -179 -177 -134 -128 -119 0
-198 -180 -177 -137 -128 -119 0
-199 -181 -177 -140 -128 -119 0
-200 -182 -177 -143 -128 -119 0
-201 -179 -178 -134 -131 -119 0
-202 -180 -178 -137 -131 -119 0
-203 -181 -178 -140 -131 -119 0
-204 -182 -178 -143 -131 -119 0
-205 -180 -179 -137 -134 -119 0
-206 -181 -179 -140 -134 -119 0
-207 -182 -179 -143 -134 -119 0
-208 -181 -180 -140 -137 -119 0
-209 -182 -180 -143 -137 -119 0
-210 -182 -181 -143 -140 -119 0
-190 -184 -183 -128 -125 -122 0
-191 -185 -183 -131 -125 -122 0
-192 -186 -183 -134 -125 -122 0
-193 -187 -183 -137 -125 -122 0
-194 -188 -183 -140 -125 -122 0
-195 -189 -183 -143 -125 -122 0
-196 -185 -184 -131 -128 -122 0
-197 -186 -184 -134 -128 -122 0
-198 -187 -184 -137 -128 -122 0
-199 -188 -184 -140 -128 -122 0
-200 -189 -184 -143 -128 -122 0
-201 -186 -185 -134 -131 -122 0
-202 -187 -185 -137 -131 -122 0
-203 -188 -185 -140 -131 -122 0
-204 -189 -185 -143 -131 -122 0
-205 -187 -186 -137 -134 -122 0
-206 -188 -186 -140 -134 -122 0
-207 -189 -186 -143 -134 -122 0
-208 -188 -187 -140 -137 -122 0
-209 -189 -187 -143 -137 -122 0
-210 -189 -188 -143 -140 -122 0
-196 -191 -190 -131 -128 -125 0
-197 -192 -190 -134 -128 -125 0
-198 -193 -190 -137 -128 -125 0
-199 -194 -190 -140 -128 -125 0
-200 -195 -190 -143 -128 -125 0
-201 -192 -191 -134 -131 -125 0
-202 -193 -191 -137 -131 -125 0
-203 -194 -191 -140 -131 -125 0
-204 -195 -191 -143 -131 -125 0
-205 -193 -192 -137 -134 -125 0
-206 -194 -192 -140 -134 -125 0
-207 -195 -192 -143 -134 -125 0
-208 -194 -193 -140 -137 -125 0
-209 -195 -193 -143 -137 -125 0
-210 -195 -194 -143 -140 -125 0
-201 -197 -196 -134 -131 -128 0
-202 -198 -196 -137 -131 -128 0
-203 -199 -196 -140 -131 -128 0
-204 -200 -196 -143 -131 -128 0
-205 -198 -197 -137 -134 -128 0
-206 -199 -197 -140 -134 -128 0
-207 -200 -197 -143 -134 -128 0
-208 -199 -198 -140 -137 -128 0
-209 -200 -198 -143 -137 -128 0
-210 -200 -199 -143 -140 -128 0
-205 -202 -201 -137 -134 -131 0
-206 -203 -201 -140 -134 -131 0
-207 -204 -201 -143 -134 -131 0
-208 -203 -202 -140 -137 -131 0
-209 -204 -202 -143 -137 -131 0
-210 -204 -203 -143 -140 -131 0
-208 -206 -205 -140 -137 -134 0
-209 -207 -205 -143 -137 -134 0
-210 -207 -206 -143 -140 -134 0
-210 -209 -208 -143 -140 -137 0
-156 -146 -145 -115 -112 -106 0
-157 -147 -145 -118 -112 -106 0
-158 -148 -145 -121 -112 -106 0
-159 -149 -145 -124 -112 -106 0
-160 -150 -145 -127 -112 -106 0
-161 -151 -145 -130 -112 -106 0
-162 -152 -145 -133 -112 -106 0
-163 -153 -145 -136 -112 -106 0
-164 -154 -145 -139 -112 -106 0
-165 -155 -145 -142 -112 -106 0
-166 -147 -146 -118 -115 -106 0
-167 -148 -146 -121 -115 -106 0
-168 -149 -146 -124 -115 -106 0
-169 -150 -146 -127 -115 -106 0
-170 -151 -146 -130 -115 -106 0
-171 -152 -146 -133 -115 -106 0
-172 -153 -146 -136 -115 -106 0
-173 -154 -146 -139 -115 -106 0
-174 -155 -146 -142 -115 -106 0
-175 -148 -147 -121 -118 -106 0
-176 -149 -147 -124 -118 -106 0
-177 -150 -147 -127 -118 -106 0
-178 -151 -147 -130 -118 -106 0
-179 -152 -147 -133 -118 -106 0
-180 -153 -147 -136 -118 -106 0
-181 -154 -147 -139 -118 -106 0
-182 -155 -147 -142 -118 -106 0
-183 -149 -148 -124 -121 -106 0
-184 -150 -148 -127 -121 -106 0
-185 -151 -148 -130 -121 -106 0
-186 -152 -148 -133 -121 -106 0
-187 -153 -148 -136 -121 -106 0
-188 -154 -148 -139 -121 -106 0
-189 -155 -148 -142 -121 -106 0
-190 -150 -149 -127 -124 -106 0
-191 -151 -149 -130 -124 -106 0
-192 -152 -149 -133 -124 -106 0
-193 -153 -149 -136 -124 -106 0
-194 -154 -149 -139 -124 -106 0
-195 -155 -149 -142 -124 -106 0
-196 -151 -150 -130 -127 -106 0
-197 -152 -150 -133 -127 -106 0
-198 -153 -150 -136 -127 -106 0
-199 -154 -150 -139 -127 -106 0
-200 -155 -150 -142 -127 -106 0
-201 -152 -151 -133 -130 -106 0
-202 -153 -151 -136 -130 -106 0
-203 -154 -151 -139 -130 -106 0
-204 -155 -151 -142 -130 -106 0
-205 -153 -152 -136 -133 -106 0
-206 -154 -152 -139 -133 -106 0
-207 -155 -152 -142 -133 -106 0
-208 -154 -153 -139 -136 -106 0
-209 -155 -153 -142 -136 -106 0
-210 -155 -154 -142 -139 -106 0
-166 -157 -156 -118 -115 -112 0
-167 -158 -156 -121 -115 -112 0
-168 -159 -156 -124 -115 -112 0
-169 -160 -156 -127 -115 -112 0
-170 -161 -156 -130 -115 -112 0
-171 -162 -156 -133 -115 -112 0
-172 -163 -156 -136 -115 -112 0
-173 -164 -156 -139 -115 -112 0
-174 -165 -156 -142 -115 -112 0
-175 -158 -157 -121 -118 -112 0
-176 -159 -157 -124 -118 -112 0
-177 -160 -157 -127 -118 -112 0
-178 -161 -157 -130 -118 -112 0
-179 -162 -157 -133 -118 -112 0
-180 -163 -157 -136 -118 -112 0
-181 -164 -157 -139 -118 -112 0
-182 -165 -157 -142 -118 -112 0
-183 -159 -158 -124 -121 -112 0
-184 -160 -158 -127 -121 -112 0
-185 -161 -158 -130 -121 -112 0
-186 -162 -158 -133 -121 -112 0
-187 -163 -158 -136 -121 -112 0
-188 -164 -158 -139 -121 -112 0
-189 -165 -158 -142 -121 -112 0
-190 -160 -159 -127 -124 -112 0
-191 -161 -159 -130 -124 -112 0
-192 -162 -159 -133 -124 -112 0
-193 -163 -159 -136 -124 -112 0
-194 -164 -159 -139 -124 -112 0
-195 -165 -159 -142 -124 -112 0
-196 -161 -160 -130 -127 -112 0
-197 -162 -160 -133 -127 -112 0
-198 -163 -160 -136 -127 -112 0
-199 -164 -160 -139 -127 -112 0
-200 -165 -160 -142 -127 -112 0
-201 -162 -161 -133 -130 -112 0
-202 -163 -161 -136 -130 -112 0
-203 -164 -161 -139 -130 -112 0
-204 -165 -161 -142 -130 -112 0
-205 -163 -162 -136 -133 -112 0
-206 -164 -162 -139 -133 -112 0
-207 -165 -162 -142 -133 -112 0
-208 -164 -163 -139 -136 -112 0
-209 -165 -163 -142 -136 -112 0
-210 -165 -164 -142 -139 -112 0
-175 -167 -166 -121 -118 -115 0
-176 -168 -166 -124 -118 -115 0
-177 -169 -166 -127 -118 -115 0
-178 -170 -166 -130 -118 -115 0
-179 -171 -166 -133 -118 -115 0
-180 -172 -166 -136 -118 -115 0
-181 -173 -166 -139 -118 -115 0
-182 -174 -166 -142 -118 -115 0
-183 -168 -167 -124 -121 -115 0
-184 -169 -167 -127 -121 -115 0
-185 -170 -167 -130 -121 -115 0
-186 -171 -167 -133 -121 -115 0
-187 -172 -167 -136 -121 -115 0
-188 -173 -167 -139 -121 -115 0
-189 -174 -167 -142 -121 -115 0
-190 -169 -168 -127 -124 -115 0
-191 -170 -168 -130 -124 -115 0
-192 -171 -168 -133 -124 -115 0
-193 -172 -168 -136 -124 -115 0
-194 -173 -168 -139 -124 -115 0
-195 -174 -168 -142 -124 -115 0
-196 -170 -169 -130 -127 -115 0
-197 -171 -169 -133 -127 -115 0
-198 -172 -169 -136 -127 -115 0
-199 -173 -169 -139 -127 -115 0
-200 -174 -169 -142 -127 -115 0
-201 -171 -170 -133 -130 -115 0
-202 -172 -170 -136 -130 -115 0
-203 -173 -170 -139 -130 -115 0
-204 -174 -170 -142 -130 -115 0
-205 -172 -171 -136 -133 -115 0
-206 -173 -171 -139 -133 -115 0
-207 -174 -171 -142 -133 -115 0
-208 -173 -172 -139 -136 -115 0
-209 -174 -172 -142 -136 -115 0
-210 -174 -173 -142 -139 -115 0
-183 -176 -175 -124 -121 -118 0
-184 -177 -175 -127 -121 -118 0
-185 -178 -175 -130 -121 -118 0
-186 -179 -175 -133 -121 -118 0
-187 -180 -175 -136 -121 -118 0
-188 -181 -175 -139 -121 -118 0
-189 -182 -175 -142 -121 -118 0
-190 -177 -176 -127 -124 -118 0
-191 -178 -176 -130 -124 -118 0
-192 -179 -176 -133 -124 -118 0
-193 -180 -176 -136 -124 -118 0
-194 -181 -176 -139 -124 -118 0
-195 -182 -176 -142 -124 -118 0
-196 -178 -177 -130 -127 -118 0
-197 -179 -177 -133 -127 -118 0
-198 -180 -177 -136 -127 -118 0
-199 -181 -177 -139 -127 -118 0
-200 -182 -177 -142 -127 -118 0
-201 -179 -178 -133 -130 -118 0
-202 -180 -178 -136 -130 -118 0
-203 -181 -178 -139 -130 -118 0
-204 -182 -178 -142 -130 -118 0
-205 -180 -179 -136 -133 -118 0
-206 -181 -179 -139 -133 -118 0
-207 -182 -179 -142 -133 -118 0
-208 -181 -180 -139 -136 -118 0
-209 -182 -180 -142 -136 -118 0
-210 -182 -181 -142 -139 -118 0
-190 -184 -183 -127 -124 -121 0
-191 -185 -183 -130 -124 -121 0
-192 -186 -183 -133 -124 -121 0
-193 -187 -183 -136 -124 -121 0
-194 -188 -183 -139 -124 -121 0
-195 -189 -183 -142 -124 -121 0
-196 -185 -184 -130 -127 -121 0
-197 -186 -184 -133 -127 -121 0
-198 -187 -184 -136 -127 -121 0
-199 -188 -184 -139 -127 -121 0
-200 -189 -184 -142 -127 -121 0
-201 -186 -185 -133 -130 -121 0
-202 -187 -185 -136 -130 -121 0
-203 -188 -185 -139 -130 -121 0
-204 -189 -185 -142 -130 -121 0
-205 -187 -186 -136 -133 -121 0
-206 -188 -186 -139 -133 -121 0
-207 -189 -186 -142 -133 -121 0
-208 -188 -187 -139 -136 -121 0
-209 -189 -187 -142 -136 -121 0
-210 -189 -188 -142 -139 -121 0
-196 -191 -190 -130 -127 -124 0
-197 -192 -190 -133 -127 -124 0
-198 -193 -190 -136 -127 -124 0
-199 -194 -190 -139 -127 -124 0
-200 -195 -190 -142 -127 -124 0
-201 -192 -191 -133 -130 -124 0
-202 -193 -191 -136 -130 -124 0
-203 -194 -191 -139 -130 -124 0
-204 -195 -191 -142 -130 -124 0
-205 -193 -192 -136 -133 -124 0
-206 -194 -192 -139 -133 -124 0
-207 -195 -192 -142 -133 -124 0
-208 -194 -193 -139 -136 -124 0
-209 -195 -193 -142 -136 -124 0
-210 -195 -194 -142 -139 -124 0
-201 -197 -196 -133 -130 -127 0
-202 -198 -196 -136 -130 -127 0
-203 -199 -196 -139 -130 -127 0
-204 -200 -196 -142 -130 -127 0
-205 -198 -197 -136 -133 -127 0
-206 -199 -197 -139 -133 -127 0
-207 -200 -197 -142 -133 -127 0
-208 -199 -198 -139 -136 -127 0
-209 -200 -198 -142 -136 -127 0
-210 -200 -199 -142 -139 -127 0
-205 -202 -201 -136 -133 -130 0
-206 -203 -201 -139 -133 -130 0
-207 -204 -201 -142 -133 -130 0
-208 -203 -202 -139 -136 -130 0
-209 -204 -202 -142 -136 -130 0
-210 -204 -203 -142 -139 -130 0
-208 -206 -205 -139 -136 -133 0
-209 -207 -205 -142 -136 -133 0
-210 -207 -206 -142 -139 -133 0
-210 -209 -208 -142 -139 -136 0
-166 -157 -156 -147 -146 -145 0
-167 -158 -156 -148 -146 -145 0
-168 -159 -156 -149 -146 -145 0
-169 -160 -156 -150 -146 -145 0
-170 -161 -156 -151 -146 -145 0
-171 -162 -156 -152 -146 -145 0
-172 -163 -156 -153 -146 -145 0
-173 -164 -156 -154 -146 -145 0
-174 -165 -156 -155 -146 -145 0
-175 -158 -157 -148 -147 -145 0
-176 -159 -157 -149 -147 -145 0
-177 -160 -157 -150 -147 -145 0
-178 -161 -157 -151 -147 -145 0
-179 -162 -157 -152 -147 -145 0
-180 -163 -157 -153 -147 -145 0
-181 -164 -157 -154 -147 -145 0
-182 -165 -157 -155 -147 -145 0
-183 -159 -158 -149 -148 -145 0
-184 -160 -158 -150 -148 -145 0
-185 -161 -158 -151 -148 -145 0
-186 -162 -158 -152 -148 -145 0
-187 -163 -158 -153 -148 -145 0
-188 -164 -158 -154 -148 -145 0
-189 -165 -158 -155 -148 -145 0
-190 -160 -159 -150 -149 -145 0
-191 -161 -159 -151 -149 -145 0
-192 -162 -159 -152 -149 -145 0
-193 -163 -159 -153 -149 -145 0
-194 -164 -159 -154 -149 -145 0
-195 -165 -159 -155 -149 -145 0
-196 -161 -160 -151 -150 -145 0
-197 -162 -160 -152 -150 -145 0
-198 -163 -160 -153 -150 -145 0
-199 -164 -160 -154 -150 -145 0
-200 -165 -160 -155 -150 -145 0
-201 -162 -161 -152 -151 -145 0
-202 -163 -161 -153 -151 -145 0
-203 -164 -161 -154 -151 -145 0
-204 -165 -161 -155 -151 -145 0
-205 -163 -162 -153 -152 -145 0
-206 -164 -162 -154 -152 -145 0
-207 -165 -162 -155 -152 -145 0
-208 -164 -163 -154 -153 -145 0
-209 -165 -163 -155 -153 -145 0
-210 -165 -164 -155 -154 -145 0
-175 -167 -166 -148 -147 -146 0
-176 -168 -166 -149 -147 -146 0
-177 -169 -166 -150 -147 -146 0
-178 -170 -166 -151 -147 -146 0
-179 -171 -166 -152 -147 -146 0
-180 -172 -166 -153 -147 -146 0
-181 -173 -166 -154 -147 -146 0
-182 -174 -166 -155 -147 -146 0
-183 -168 -167 -149 -148 -146 0
-184 -169 -167 -150 -148 -146 0
-185 -170 -167 -151 -148 -146 0
-186 -171 -167 -152 -148 -146 0
-187 -172 -167 -153 -148 -146 0
-188 -173 -167 -154 -148 -146 0
-189 -174 -167 -155 -148 -146 0
-190 -169 -168 -150 -149 -146 0
-191 -170 -168 -151 -149 -146 0
-192 -171 -168 -152 -149 -146 0
-193 -172 -168 -153 -149 -146 0
-194 -173 -168 -154 -149 -146 0
-195 -174 -168 -155 -149 -146 0
-196 -170 -169 -151 -150 -146 0
-197 -171 -169 -152 -150 -146 0
-198 -172 -169 -153 -150 -146 0
-199 -173 -169 -154 -150 -146 0
-200 -174 -169 -155 -150 -146 0
-201 -171 -170 -152 -151 -146 0
-202 -172 -170 -153 -151 -146 0
-203 -173 -170 -154 -151 -146 0
-204 -174 -170 -155 -151 -146 0
-205 -172 -171 -153 -152 -146 0
-206 -173 -171 -154 -152 -146 0
-207 -174 -171 -155 -152 -146 0
-208 -173 -172 -154 -153 -146 0
-209 -174 -172 -155 -153 -146 0
-210 -174 -173 -155 -154 -146 0
-183 -176 -175 -149 -148 -147 0
-184 -177 -175 -150 -148 -147 0
-185 -178 -175 -151 -148 -147 0
-186 -179 -175 -152 -148 -147 0
-187 -180 -175 -153 -148 -147 0
-188 -181 -175 -154 -148 -147 0
-189 -182 -175 -155 -148 -147 0
-190 -177 -176 -150 -149 -147 0
-191 -178 -176 -151 -149 -147 0
-192 -179 -176 -152 -149 -147 0
-193 -180 -176 -153 -149 -147 0
-194 -181 -176 -154 -149 -147 0
-195 -182 -176 -155 -149 -147 0
-196 -178 -177 -151 -150 -147 0
-197 -179 -177 -152 -150 -147 0
-198 -180 -177 -153 -150 -147 0
-199 -181 -177 -154 -150 -147 0
-200 -182 -177 -155 -150 -147 0
-201 -179 -178 -152 -151 -147 0
-202 -180 -178 -153 -151 -147 0
-203 -181 -178 -154 -151 -147 0
-204 -182 -178 -155 -151 -147 0
-205 -180 -179 -153 -152 -147 0
-206 -181 -179 -154 -152 -147 0
-207 -182 -179 -155 -152 -147 0
-208 -181 -180 -154 -153 -147 0
-209 -182 -180 -155 -153 -147 0
-210 -182 -181 -155 -154 -147 0
-190 -184 -183 -150 -149 -148 0
-191 -185 -183 -151 -149 -148 0
-192 -186 -183 -152 -149 -148 0
-193 -187 -183 -153 -149 -148 0
-194 -188 -183 -154 -149 -148 0
-195 -189 -183 -155 -149 -148 0
-196 -185 -184 -151 -150 -148 0
-197 -186 -184 -152 -150 -148 0
-198 -187 -184 -153 -150 -148 0
-199 -188 -184 -154 -150 -148 0
-200 -189 -184 -155 -150 -148 0
-201 -186 -185 -152 -151 -148 0
-202 -187 -185 -153 -151 -148 0
-203 -188 -185 -154 -151 -148 0
-204 -189 -185 -155 -151 -148 0
-205 -187 -186 -153 -152 -148 0
-206 -188 -186 -154 -152 -148 0
-207 -189 -186 -155 -152 -148 0
-208 -188 -187 -154 -153 -148 0
-209 -189 -187 -155 -153 -148 0
-210 -189 -188 -155 -154 -148 0
-196 -191 -190 -151 -150 -149 0
-197 -192 -190 -152 -150 -149 0
-198 -193 -190 -153 -150 -149 0
-199 -194 -190 -154 -150 -149 0
-200 -195 -190 -155 -150 -149 0
-201 -192 -191 -152 -151 -149 0
-202 -193 -191 -153 -151 -149 0
-203 -194 -191 -154 -151 -149 0
-204 -195 -191 -155 -151 -149 0
-205 -193 -192 -153 -152 -149 0
-206 -194 -192 -154 -152 -149 0
-207 -195 -192 -155 -152 -149 0
-208 -194 -193 -154 -153 -149 0
-209 -195 -193 -155 -153 -149 0
-210 -195 -194 -155 -154 -149 0
-201 -197 -196 -152 -151 -150 0
-202 -198 -196 -153 -151 -150 0
-203 -199 -196 -154 -151 -150 0
-204 -200 -196 -155 -151 -150 0
-205 -198 -197 -153 -152 -150 0
-206 -199 -197 -154 -152 -150 0
-207 -200 -197 -155 -152 -150 0
-208 -199 -198 -154 -153 -150 0
-209 -200 -198 -155 -153 -150 0
-210 -200 -199 -155 -154 -150 0
-205 -202 -201 -153 -152 -151 0
-206 -203 -201 -154 -152 -151 0
-207 -204 -201 -155 -152 -151 0
-208 -203 -202 -154 -153 -151 0
-209 -204 -202 -155 -153 -151 0
-210 -204 -203 -155 -154 -151 0
-208 -206 -205 -154 -153 -152 0
-209 -207 -205 -155 -153 -152 0
-210 -207 -206 -155 -154 -152 0
-210 -209 -208 -155 -154 -153 0
-175 -167 -166 -158 -157 -156 0
-176 -168 -166 -159 -157 -156 0
-177 -169 -166 -160 -157 -156 0
-178 -170 -166 -161 -157 -156 0
-179 -171 -166 -162 -157 -156 0
-180 -172 -166 -163 -157 -156 0
-181 -173 -166 -164 -157 -156 0
-182 -174 -166 -165 -157 -156 0
-183 -168 -167 -159 -158 -156 0
-184 -169 -167 -160 -158 -156 0
-185 -170 -167 -161 -158 -156 0
-186 -171 -167 -162 -158 -156 0
-187 -172 -167 -163 -158 -156 0
-188 -173 -167 -164 -158 -156 0
-189 -174 -167 -165 -158 -156 0
-190 -169 -168 -160 -159 -156 0
-191 -170 -168 -161 -159 -156 0
-192 -171 -168 -162 -159 -156 0
-193 -172 -168 -163 -159 -156 0
-194 -173 -168 -164 -159 -156 0
-195 -174 -168 -165 -159 -156 0
-196 -170 -169 -161 -160 -156 0
-197 -171 -169 -162 -160 -156 0
-198 -172 -169 -163 -160 -156 0
-199 -173 -169 -164 -160 -156 0
-200 -174 -169 -165 -160 -156 0
-201 -171 -170 -162 -161 -156 0
-202 -172 -170 -163 -161 -156 0
-203 -173 -170 -164 -161 -156 0
-204 -174 -170 -165 -161 -156 0
-205 -172 -171 -163 -162 -156 0
-206 -173 -171 -164 -162 -156 0
-207 -174 -171 -165 -162 -156 0
-208 -173 -172 -164 -163 -156 0
-209 -174 -172 -165 -163 -156 0
-210 -174 -173 -165 -164 -156 0
-183 -176 -175 -159 -158 -157 0
-184 -177 -175 -160 -158 -157 0
-185 -178 -175 -161 -158 -157 0
-186 -179 -175 -162 -158 -157 0
-187 -180 -175 -163 -158 -157 0
-188 -181 -175 -164 -158 -157 0
-189 -182 -175 -165 -158 -157 0
-190 -177 -176 -160 -159 -157 0
-191 -178 -176 -161 -159 -157 0
-192 -179 -176 -162 -159 -157 0
-193 -180 -176 -163 -159 -157 0
-194 -181 -176 -164 -159 -157 0
-195 -182 -176 -165 -159 -157 0
-196 -178 -177 -161 -160 -157 0
-197 -179 -177 -162 -160 -157 0
-198 -180 -177 -163 -160 -157 0
-199 -181 -177 -164 -160 -157 0
-200 -182 -177 -165 -160 -157 0
-201 -179 -178 -162 -161 -157 0
-202 -180 -178 -163 -161 -157 0
-203 -181 -178 -164 -161 -157 0
-204 -182 -178 -165 -161 -157 0
-205 -180 -179 -163 -162 -157 0
-206 -181 -179 -164 -162 -157 0
-207 -182 -179 -165 -162 -157 0
-208 -181 -180 -164 -163 -157 0
-209 -182 -180 -165 -163 -157 0
-210 -182 -181 -165 -164 -157 0
-190 -184 -183 -160 -159 -158 0
-191 -185 -183 -161 -159 -158 0
-192 -186 -183 -162 -159 -158 0
-193 -187 -183 -163 -159 -158 0
-194 -188 -183 -164 -159 -158 0
-195 -189 -183 -165 -159 -158 0
-196 -185 -184 -161 -160 -158 0
-197 -186 -184 -162 -160 -158 0
-198 -187 -184 -163 -160 -158 0
-199 -188 -184 -164 -160 -158 0
-200 -189 -184 -165 -160 -158 0
-201 -186 -185 -162 -161 -158 0
-202 -187 -185 -163 -161 -158 0
-203 -188 -185 -164 -161 -158 0
-204 -189 -185 -165 -161 -158 0
-205 -187 -186 -163 -162 -158 0
-206 -188 -186 -164 -162 -158 0
-207 -189 -186 -165 -162 -158 0
-208 -188 -187 -164 -163 -158 0
-209 -189 -187 -165 -163 -158 0
-210 -189 -188 -165 -164 -158 0
-196 -191 -190 -161 -160 -159 0
-197 -192 -190 -162 -160 -159 0
-198 -193 -190 -163 -160 -159 0
-199 -194 -190 -164 -160 -159 0
-200 -195 -190 -165 -160 -159 0
-201 -192 -191 -162 -161 -159 0
-202 -193 -191 -163 -161 -159 0
-203 -194 -191 -164 -161 -159 0
-204 -195 -191 -165 -161 -159 0
-205 -193 -192 -163 -162 -159 0
-206 -194 -192 -164 -162 -159 0
-207 -195 -192 -165 -162 -159 0
-208 -194 -193 -164 -163 -159 0
-209 -195 -193 -165 -163 -159 0
-210 -195 -194 -165 -164 -159 0
-201 -197 -196 -162 -161 -160 0
-202 -198 -196 -163 -161 -160 0
-203 -199 -196 -164 -161 -160 0
-204 -200 -196 -165 -161 -160 0
-205 -198 -197 -163 -162 -160 0
-206 -199 -197 -164 -162 -160 0
-207 -200 -197 -165 -162 -160 0
-208 -199 -198 -164 -163 -160 0
-209 -200 -198 -165 -163 -160 0
-210 -200 -199 -165 -164 -160 0
-205 -202 -201 -163 -162 -161 0
-206 -203 -201 -164 -162 -161 0
-207 -204 -201 -165 -162 -161 0
-208 -203 -202 -164 -163 -161 0
-209 -204 -202 -165 -163 -161 0
-210 -204 -203 -165 -164 -161 0
-208 -206 -205 -164 -163 -162 0
-209 -207 -205 -165 -163 -162 0
-210 -207 -206 -165 -164 -162 0
-210 -209 -208 -165 -164 -163 0
-183 -176 -175 -168 -167 -166 0
-184 -177 -175 -169 -167 -166 0
-185 -178 -175 -170 -167 -166 0
-186 -179 -175 -171 -167 -166 0
-187 -180 -175 -172 -167 -166 0
-188 -181 -175 -173 -167 -166 0
-189 -182 -175 -174 -167 -166 0
-190 -177 -176 -169 -168 -166 0
-191 -178 -176 -170 -168 -166 0
-192 -179 -176 -171 -168 -166 0
-193 -180 -176 -172 -168 -166 0
-194 -181 -176 -173 -168 -166 0
-195 -182 -176 -174 -168 -166 0
-196 -178 -177 -170 -169 -166 0
-197 -179 -177 -171 -169 -166 0
-198 -180 -177 -172 -169 -166 0
-199 -181 -177 -173 -169 -166 0
-200 -182 -177 -174 -169 -166 0
-201 -179 -178 -171 -170 -166 0
-202 -180 -178 -172 -170 -166 0
-203 -181 -178 -173 -170 -166 0
-204 -182 -178 -174 -170 -166 0
-205 -180 -179 -172 -171 -166 0
-206 -181 -179 -173 -171 -166 0
-207 -182 -179 -174 -171 -166 0
-208 -181 -180 -173 -172 -166 0
-209 -182 -180 -174 -172 -166 0
-210 -182 -181 -174 -173 -166 0
-190 -184 -183 -169 -168 -167 0
-191 -185 -183 -170 -168 -167 0
-192 -186 -183 -171 -168 -167 0
-193 -187 -183 -172 -168 -167 0
-194 -188 -183 -173 -168 -167 0
-195 -189 -183 -174 -168 -167 0
-196 -185 -184 -170 -169 -167 0
-197 -186 -184 -171 -169 -167 0
-198 -187 -184 -172 -169 -167 0
-199 -188 -184 -173 -169 -167 0
-200 -189 -184 -174 -169 -167 0
-201 -186 -185 -171 -170 -167 0
-202 -187 -185 -172 -170 -167 0
-203 -188 -185 -173 -170 -167 0
-204 -189 -185 -174 -170 -167 0
-205 -187 -186 -172 -171 -167 0
-206 -188 -186 -173 -171 -167 0
-207 -189 -186 -174 -171 -167 0
-208 -188 -187 -173 -172 -167 0
-209 -189 -187 -174 -172 -167 0
-210 -189 -188 -174 -173 -167 0
-196 -191 -190 -170 -169 -168 0
-197 -192 -190 -171 -169 -168 0
-198 -193 -190 -172 -169 -168 0
-199 -194 -190 -173 -169 -168 0
-200 -195 -190 -174 -169 -168 0
-201 -192 -191 -171 -170 -168 0
-202 -193 -191 -172 -170 -168 0
-203 -194 -191 -173 -170 -168 0
-204 -195 -191 -174 -170 -168 0
-205 -193 -192 -172 -171 -168 0
-206 -194 -192 -173 -171 -168 0
-207 -195 -192 -174 -171 -168 0
-208 -194 -193 -173 -172 -168 0
-209 -195 -193 -174 -172 -168 0
-210 -195 -194 -174 -173 -168 0
-201 -197 -196 -171 -170 -169 0
-202 -198 -196 -172 -170 -169 0
-203 -199 -196 -173 -170 -169 0
-204 -200 -196 -174 -170 -169 0
-205 -198 -197 -172 -171 -169 0
-206 -199 -197 -173 -171 -169 0
-207 -200 -197 -174 -171 -169 0
-208 -199 -198 -173 -172 -169 0
-209 -200 -198 -174 -172 -169 0
-210 -200 -199 -174 -173 -169 0
-205 -202 -201 -172 -171 -170 0
-206 -203 -201 -173 -171 -170 0
-207 -204 -201 -174 -171 -170 0
-208 -203 -202 -173 -172 -170 0
-209 -204 -202 -174 -172 -170 0
-210 -204 -203 -174 -173 -170 0
-208 -206 -205 -173 -172 -171 0
-209 -207 -205 -174 -172 -171 0
-210 -207 -206 -174 -173 -171 0
-210 -209 -208 -174 -173 -172 0
-190 -184 -183 -177 -176 -175 0
-191 -185 -183 -178 -176 -175 0
-192 -186 -183 -179 -176 -175 0
-193 -187 -183 -180 -176 -175 0
-194 -188 -183 -181 -176 -175 0
-195 -189 -183 -182 -176 -175 0
-196 -185 -184 -178 -177 -175 0
-197 -186 -184 -179 -177 -175 0
-198 -187 -184 -180 -177 -175 0
-199 -188 -184 -181 -177 -175 0
-200 -189 -184 -182 -177 -175 0
-201 -186 -185 -179 -178 -175 0
-202 -187 -185 -180 -178 -175 0
-203 -188 -185 -181 -178 -175 0
-204 -189 -185 -182 -178 -175 0
-205 -187 -186 -180 -179 -175 0
-206 -188 -186 -181 -179 -175 0
-207 -189 -186 -182 -179 -175 0
-208 -188 -187 -181 -180 -175 0
-209 -189 -187 -182 -180 -175 0
-210 -189 -188 -182 -181 -175 0
-196 -191 -190 -178 -177 -176 0
-197 -192 -190 -179 -177 -176 0
-198 -193 -190 -180 -177 -176 0
-199 -194 -190 -181 -177 -176 0
-200 -195 -190 -182 -177 -176 0
-201 -192 -191 -179 -178 -176 0
-202 -193 -191 -180 -178 -176 0
-203 -194 -191 -181 -178 -176 0
-204 -195 -191 -182 -178 -176 0
-205 -193 -192 -180 -179 -176 0
-206 -194 -192 -181 -179 -176 0
-207 -195 -192 -182 -179 -176 0
-208 -194 -193 -181 -180 -176 0
-209 -195 -193 -182 -180 -176 0
-210 -195 -194 -182 -181 -176 0
-201 -197 -196 -179 -178 -177 0
-202 -198 -196 -180 -178 -177 0
-203 -199 -196 -181 -178 -177 0
-204 -200 -196 -182 -178 -177 0
-205 -198 -197 -180 -179 -177 0
-206 -199 -197 -181 -179 -177 0
-207 -200 -197 -182 -179 -177 0
-208 -199 -198 -181 -180 -177 0
-209 -200 -198 -182 -180 -177 0
-210 -200 -199 -182 -181 -177 0
-205 -202 -201 -180 -179 -178 0
-206 -203 -201 -181 -179 -178 0
-207 -204 -201 -182 -179 -178 0
-208 -203 -202 -181 -180 -178 0
-209 -204 -202 -182 -180 -178 0
-210 -204 -203 -182 -181 -178 0
-208 -206 -205 -181 -180 -179 0
-209 -207 -205 -182 -180 -179 0
-210 -207 -206 -182 -181 -179 0
-210 -209 -208 -182 -181 -180 0
-196 -191 -190 -185 -184 -183 0
-197 -192 -190 -186 -184 -183 0
-198 -193 -190 -187 -184 -183 0
-199 -194 -190 -188 -184 -183 0
-200 -195 -190 -189 -184 -183 0
-201 -192 -191 -186 -185 -183 0
-202 -193 -191 -187 -185 -183 0
-203 -194 -191 -188 -185 -183 0
-204 -195 -191 -189 -185 -183 0
-205 -193 -192 -187 -186 -183 0
-206 -194 -192 -188 -186 -183 0
-207 -195 -192 -189 -186 -183 0
-208 -194 -193 -188 -187 -183 0
-209 -195 -193 -189 -187 -183 0
-210 -195 -194 -189 -188 -183 0
-201 -197 -196 -186 -185 -184 0
-202 -198 -196 -187 -185 -184 0
-203 -199 -196 -188 -185 -184 0
-204 -200 -196 -189 -185 -184 0
-205 -198 -197 -187 -186 -184 0
-206 -199 -197 -188 -186 -184 0
-207 -200 -197 -189 -186 -184 0
-208 -199 -198 -188 -187 -184 0
-209 -200 -198 -189 -187 -184 0
-210 -200 -199 -189 -188 -184 0
-205 -202 -201 -187 -186 -185 0
-206 -203 -201 -188 -186 -185 0
-207 -204 -201 -189 -186 -185 0
-208 -203 -202 -188 -187 -185 0
-209 -204 -202 -189 -187 -185 0
-210 -204 -203 -189 -188 -185 0
-208 -206 -205 -188 -187 -186 0
-209 -207 -205 -189 -187 -186 0
-210 -207 -206 -189 -188 -186 0
-210 -209 -208 -189 -188 -187 0
-201 -197 -196 -192 -191 -190 0
-202 -198 -196 -193 -191 -190 0
-203 -199 -196 -194 -191 -190 0
-204 -200 -196 -195 -191 -190 0
-205 -198 -197 -193 -192 -190 0
-206 -199 -197 -194 -192 -190 0
-207 -200 -197 -195 -192 -190 0
-208 -199 -198 -194 -193 -190 0
-209 -200 -198 -195 -193 -190 0
-210 -200 -199 -195 -194 -190 0
-205 -202 -201 -193 -192 -191 0
-206 -203 -201 -194 -192 -191 0
-207 -204 -201 -195 -192 -191 0
-208 -203 -202 -194 -193 -191 0
-209 -204 -202 -195 -193 -191 0
-210 -204 -203 -195 -194 -191 0
-208 -206 -205 -194 -193 -192 0
-209 -207 -205 -195 -193 -192 0
-210 -207 -206 -195 -194 -192 0
-210 -209 -208 -195 -194 -193 0
-205 -202 -201 -198 -197 -196 0
-206 -203 -201 -199 -197 -196 0
-207 -204 -201 -200 -197 -196 0
-208 -203 -202 -199 -198 -196 0
-209 -204 -202 -200 -198 -196 0
-210 -204 -203 -200 -199 -196 0
-208 -206 -205 -199 -198 -197 0
-209 -207 -205 -200 -198 -197 0
-210 -207 -206 -200 -199 -197 0
-210 -209 -208 -200 -199 -198 0
-208 -206 -205 -203 -202 -201 0
-209 -207 -205 -204 -202 -201 0
-210 -207 -206 -204 -203 -201 0
-210 -209 -208 -204 -203 -202 0
-210 -209 -208 -207 -206 -205 0
111 6 0
-111 -6 0
110 5 0
-110 -5 0
109 4 0
-109 -4 0
114 9 0
-114 -9 0
117 12 0
-117 -12 0
120 15 0
-120 -15 0
123 18 0
-123 -18 0
126 21 0
-126 -21 0
129 24 0
-129 -24 0
132 27 0
-132 -27 0
135 30 0
-135 -30 0
138 33 0
-138 -33 0
141 36 0
-141 -36 0
144 39 0
-144 -39 0
108 3 0
-108 -3 0
107 2 0
-107 -2 0
113 8 0
-113 -8 0
116 11 0
-116 -11 0
119 14 0
-119 -14 0
122 17 0
-122 -17 0
125 20 0
-125 -20 0
128 23 0
-128 -23 0
131 26 0
-131 -26 0
134 29 0
-134 -29 0
137 32 0
-137 -32 0
140 35 0
-140 -35 0
143 38 0
-143 -38 0
106 1 0
-106 -1 0
112 7 0
-112 -7 0
115 10 0
-115 -10 0
118 13 0
-118 -13 0
121 16 0
-121 -16 0
124 19 0
-124 -19 0
127 22 0
-127 -22 0
130 25 0
-130 -25 0
133 28 0
-133 -28 0
136 31 0
-136 -31 0
139 34 0
-139 -34 0
142 37 0
-142 -37 0
145 40 0
-145 -40 0
146 41 0
-146 -41 0
147 42 0
-147 -42 0
148 43 0
-148 -43 0
149 44 0
-149 -44 0
150 45 0
-150 -45 0
151 46 0
-151 -46 0
152 47 0
-152 -47 0
153 48 0
-153 -48 0
154 49 0
-154 -49 0
155 50 0
-155 -50 0
156 51 0
-156 -51 0
157 52 0
-157 -52 0
158 53 0
-158 -53 0
159 54 0
-159 -54 0
160 55 0
-160 -55 0
161 56 0
-161 -56 0
162 57 0
-162 -57 0
163 58 0
-163 -58 0
164 59 0
-164 -59 0
165 60 0
-165 -60 0
166 61 0
-166 -61 0
167 62 0
-167 -62 0
168 63 0
-168 -63 0
169 64 0
-169 -64 0
170 65 0
-170 -65 0
171 66 0
-171 -66 0
172 67 0
-172 -67 0
173 68 0
-173 -68 0
174 69 0
-174 -69 0
175 70 0
-175 -70 0
176 71 0
-176 -71 0
177 72 0
-177 -72 0
178 73 0
-178 -73 0
179 74 0
-179 -74 0
180 75 0
-180 -75 0
181 76 0
-181 -76 0
182 77 0
-182 -77 0
183 78 0
-183 -78 0
184 79 0
-184 -79 0
185 80 0
-185 -80 0
186 81 0
-186 -81 0
187 82 0
-187 -82 0
188 83 0
-188 -83 0
189 84 0
-189 -84 0
190 85 0
-190 -85 0
191 86 0
-191 -86 0
192 87 0
-192 -87 0
193 88 0
-193 -88 0
194 89 0
-194 -89 0
195 90 0
-195 -90 0
196 91 0
-196 -91 0
197 92 0
-197 -92 0
198 93 0
-198 -93 0
199 94 0
-199 -94 0
200 95 0
-200 -95 0
201 96 0
-201 -96 0
202 97 0
-202 -97 0
203 98 0
-203 -98 0
204 99 0
-204 -99 0
205 100 0
-205 -100 0
206 101 0
-206 -101 0
207 102 0
-207 -102 0
208 103 0
-208 -103 0
209 104 0
-209 -104 0
210 105 0
-210 -105 0
