c auto generated from <file>
p cnf 240 3880
-1 -2 -3 -4 -5 -6 0
-7 -8 -3 -9 -5 -6 0
-10 -11 -3 -12 -5 -6 0
-13 -14 -3 -15 -5 -6 0
-16 -17 -3 -18 -5 -6 0
-19 -20 -3 -21 -5 -6 0
-22 -23 -3 -24 -5 -6 0
-25 -26 -3 -27 -5 -6 0
-28 -29 -3 -30 -5 -6 0
-31 -32 -3 -33 -5 -6 0
-34 -35 -3 -36 -5 -6 0
-37 -38 -3 -39 -5 -6 0
-40 -41 -3 -42 -5 -6 0
-43 -8 -2 -9 -4 -6 0
-44 -11 -2 -12 -4 -6 0
-45 -14 -2 -15 -4 -6 0
-46 -17 -2 -18 -4 -6 0
-47 -20 -2 -21 -4 -6 0
-48 -23 -2 -24 -4 -6 0
-49 -26 -2 -27 -4 -6 0
-50 -29 -2 -30 -4 -6 0
-51 -32 -2 -33 -4 -6 0
-52 -35 -2 -36 -4 -6 0
-53 -38 -2 -39 -4 -6 0
-54 -41 -2 -42 -4 -6 0
-55 -11 -8 -12 -9 -6 0
-56 -14 -8 -15 -9 -6 0
-57 -17 -8 -18 -9 -6 0
-58 -20 -8 -21 -9 -6 0
-59 -23 -8 -24 -9 -6 0
-60 -26 -8 -27 -9 -6 0
-61 -29 -8 -30 -9 -6 0
-62 -32 -8 -33 -9 -6 0
-63 -35 -8 -36 -9 -6 0
-64 -38 -8 -39 -9 -6 0
-65 -41 -8 -42 -9 -6 0
-66 -14 -11 -15 -12 -6 0
-67 -17 -11 -18 -12 -6 0
-68 -20 -11 -21 -12 -6 0
-69 -23 -11 -24 -12 -6 0
-70 -26 -11 -27 -12 -6 0
-71 -29 -11 -30 -12 -6 0
-72 -32 -11 -33 -12 -6 0
-73 -35 -11 -36 -12 -6 0
-74 -38 -11 -39 -12 -6 0
-75 -41 -11 -42 -12 -6 0
-76 -17 -14 -18 -15 -6 0
-77 -20 -14 -21 -15 -6 0
-78 -23 -14 -24 -15 -6 0
-79 -26 -14 -27 -15 -6 0
-80 -29 -14 -30 -15 -6 0
-81 -32 -14 -33 -15 -6 0
-82 -35 -14 -36 -15 -6 0
-83 -38 -14 -39 -15 -6 0
-84 -41 -14 -42 -15 -6 0
-85 -20 -17 -21 -18 -6 0
-86 -23 -17 -24 -18 -6 0
-87 -26 -17 -27 -18 -6 0
-88 -29 -17 -30 -18 -6 0
-89 -32 -17 -33 -18 -6 0
-90 -35 -17 -36 -18 -6 0
-91 -38 -17 -39 -18 -6 0
-92 -41 -17 -42 -18 -6 0
-93 -23 -20 -24 -21 -6 0
-94 -26 -20 -27 -21 -6 0
-95 -29 -20 -30 -21 -6 0
-96 -32 -20 -33 -21 -6 0
-97 -35 -20 -36 -21 -6 0
-98 -38 -20 -39 -21 -6 0
-99 -41 -20 -42 -21 -6 0
-100 -26 -23 -27 -24 -6 0
-101 -29 -23 -30 -24 -6 0
-102 -32 -23 -33 -24 -6 0
-103 -35 -23 -36 -24 -6 0
-104 -38 -23 -39 -24 -6 0
-105 -41 -23 -42 -24 -6 0
-106 -29 -26 -30 -27 -6 0
-107 -32 -26 -33 -27 -6 0
-108 -35 -26 -36 -27 -6 0
-109 -38 -26 -39 -27 -6 0
-110 -41 -26 -42 -27 -6 0
-111 -32 -29 -33 -30 -6 0
-112 -35 -29 -36 -30 -6 0
-113 -38 -29 -39 -30 -6 0
-114 -41 -29 -42 -30 -6 0
-115 -35 -32 -36 -33 -6 0
-116 -38 -32 -39 -33 -6 0
-117 -41 -32 -42 -33 -6 0
-118 -38 -35 -39 -36 -6 0
-119 -41 -35 -42 -36 -6 0
-120 -41 -38 -42 -39 -6 0
-43 -7 -1 -9 -4 -5 0
-44 -10 -1 -12 -4 -5 0
-45 -13 -1 -15 -4 -5 0
-46 -16 -1 -18 -4 -5 0
-47 -19 -1 -21 -4 -5 0
-48 -22 -1 -24 -4 -5 0
-49 -25 -1 -27 -4 -5 0
-50 -28 -1 -30 -4 -5 0
-51 -31 -1 -33 -4 -5 0
-52 -34 -1 -36 -4 -5 0
-53 -37 -1 -39 -4 -5 0
-54 -40 -1 -42 -4 -5 0
-55 -10 -7 -12 -9 -5 0
-56 -13 -7 -15 -9 -5 0
-57 -16 -7 -18 -9 -5 0
-58 -19 -7 -21 -9 -5 0
-59 -22 -7 -24 -9 -5 0
-60 -25 -7 -27 -9 -5 0
-61 -28 -7 -30 -9 -5 0
-62 -31 -7 -33 -9 -5 0
-63 -34 -7 -36 -9 -5 0
-64 -37 -7 -39 -9 -5 0
-65 -40 -7 -42 -9 -5 0
-66 -13 -10 -15 -12 -5 0
-67 -16 -10 -18 -12 -5 0
-68 -19 -10 -21 -12 -5 0
-69 -22 -10 -24 -12 -5 0
-70 -25 -10 -27 -12 -5 0
-71 -28 -10 -30 -12 -5 0
-72 -31 -10 -33 -12 -5 0
-73 -34 -10 -36 -12 -5 0
-74 -37 -10 -39 -12 -5 0
-75 -40 -10 -42 -12 -5 0
-76 -16 -13 -18 -15 -5 0
-77 -19 -13 -21 -15 -5 0
-78 -22 -13 -24 -15 -5 0
-79 -25 -13 -27 -15 -5 0
-80 -28 -13 -30 -15 -5 0
-81 -31 -13 -33 -15 -5 0
-82 -34 -13 -36 -15 -5 0
-83 -37 -13 -39 -15 -5 0
-84 -40 -13 -42 -15 -5 0
-85 -19 -16 -21 -18 -5 0
-86 -22 -16 -24 -18 -5 0
-87 -25 -16 -27 -18 -5 0
-88 -28 -16 -30 -18 -5 0
-89 -31 -16 -33 -18 -5 0
-90 -34 -16 -36 -18 -5 0
-91 -37 -16 -39 -18 -5 0
-92 -40 -16 -42 -18 -5 0
-93 -22 -19 -24 -21 -5 0
-94 -25 -19 -27 -21 -5 0
-95 -28 -19 -30 -21 -5 0
-96 -31 -19 -33 -21 -5 0
-97 -34 -19 -36 -21 -5 0
-98 -37 -19 -39 -21 -5 0
-99 -40 -19 -42 -21 -5 0
-100 -25 -22 -27 -24 -5 0
-101 -28 -22 -30 -24 -5 0
-102 -31 -22 -33 -24 -5 0
-103 -34 -22 -36 -24 -5 0
-104 -37 -22 -39 -24 -5 0
-105 -40 -22 -42 -24 -5 0
-106 -28 -25 -30 -27 -5 0
-107 -31 -25 -33 -27 -5 0
-108 -34 -25 -36 -27 -5 0
-109 -37 -25 -39 -27 -5 0
-110 -40 -25 -42 -27 -5 0
-111 -31 -28 -33 -30 -5 0
-112 -34 -28 -36 -30 -5 0
-113 -37 -28 -39 -30 -5 0
-114 -40 -28 -42 -30 -5 0
-115 -34 -31 -36 -33 -5 0
-116 -37 -31 -39 -33 -5 0
-117 -40 -31 -42 -33 -5 0
-118 -37 -34 -39 -36 -5 0
-119 -40 -34 -42 -36 -5 0
-120 -40 -37 -42 -39 -5 0
-55 -44 -43 -12 -9 -4 0
-56 -45 -43 -15 -9 -4 0
-57 -46 -43 -18 -9 -4 0
-58 -47 -43 -21 -9 -4 0
-59 -48 -43 -24 -9 -4 0
-60 -49 -43 -27 -9 -4 0
-61 -50 -43 -30 -9 -4 0
-62 -51 -43 -33 -9 -4 0
-63 -52 -43 -36 -9 -4 0
-64 -53 -43 -39 -9 -4 0
-65 -54 -43 -42 -9 -4 0
-66 -45 -44 -15 -12 -4 0
-67 -46 -44 -18 -12 -4 0
-68 -47 -44 -21 -12 -4 0
-69 -48 -44 -24 -12 -4 0
-70 -49 -44 -27 -12 -4 0
-71 -50 -44 -30 -12 -4 0
-72 -51 -44 -33 -12 -4 0
-73 -52 -44 -36 -12 -4 0
-74 -53 -44 -39 -12 -4 0
-75 -54 -44 -42 -12 -4 0
-76 -46 -45 -18 -15 -4 0
-77 -47 -45 -21 -15 -4 0
-78 -48 -45 -24 -15 -4 0
-79 -49 -45 -27 -15 -4 0
-80 -50 -45 -30 -15 -4 0
-81 -51 -45 -33 -15 -4 0
-82 -52 -45 -36 -15 -4 0
-83 -53 -45 -39 -15 -4 0
-84 -54 -45 -42 -15 -4 0
-85 -47 -46 -21 -18 -4 0
-86 -48 -46 -24 -18 -4 0
-87 -49 -46 -27 -18 -4 0
-88 -50 -46 -30 -18 -4 0
-89 -51 -46 -33 -18 -4 0
-90 -52 -46 -36 -18 -4 0
-91 -53 -46 -39 -18 -4 0
-92 -54 -46 -42 -18 -4 0
-93 -48 -47 -24 -21 -4 0
-94 -49 -47 -27 -21 -4 0
-95 -50 -47 -30 -21 -4 0
-96 -51 -47 -33 -21 -4 0
-97 -52 -47 -36 -21 -4 0
-98 -53 -47 -39 -21 -4 0
-99 -54 -47 -42 -21 -4 0
-100 -49 -48 -27 -24 -4 0
-101 -50 -48 -30 -24 -4 0
-102 -51 -48 -33 -24 -4 0
-103 -52 -48 -36 -24 -4 0
-104 -53 -48 -39 -24 -4 0
-105 -54 -48 -42 -24 -4 0
-106 -50 -49 -30 -27 -4 0
-107 -51 -49 -33 -27 -4 0
-108 -52 -49 -36 -27 -4 0
-109 -53 -49 -39 -27 -4 0
-110 -54 -49 -42 -27 -4 0
-111 -51 -50 -33 -30 -4 0
-112 -52 -50 -36 -30 -4 0
-113 -53 -50 -39 -30 -4 0
-114 -54 -50 -42 -30 -4 0
-115 -52 -51 -36 -33 -4 0
-116 -53 -51 -39 -33 -4 0
-117 -54 -51 -42 -33 -4 0
-118 -53 -52 -39 -36 -4 0
-119 -54 -52 -42 -36 -4 0
-120 -54 -53 -42 -39 -4 0
-66 -56 -55 -15 -12 -9 0
-67 -57 -55 -18 -12 -9 0
-68 -58 -55 -21 -12 -9 0
-69 -59 -55 -24 -12 -9 0
-70 -60 -55 -27 -12 -9 0
-71 -61 -55 -30 -12 -9 0
-72 -62 -55 -33 -12 -9 0
-73 -63 -55 -36 -12 -9 0
-74 -64 -55 -39 -12 -9 0
-75 -65 -55 -42 -12 -9 0
-76 -57 -56 -18 -15 -9 0
-77 -58 -56 -21 -15 -9 0
-78 -59 -56 -24 -15 -9 0
-79 -60 -56 -27 -15 -9 0
-80 -61 -56 -30 -15 -9 0
-81 -62 -56 -33 -15 -9 0
-82 -63 -56 -36 -15 -9 0
-83 -64 -56 -39 -15 -9 0
-84 -65 -56 -42 -15 -9 0
-85 -58 -57 -21 -18 -9 0
-86 -59 -57 -24 -18 -9 0
-87 -60 -57 -27 -18 -9 0
-88 -61 -57 -30 -18 -9 0
-89 -62 -57 -33 -18 -9 0
-90 -63 -57 -36 -18 -9 0
-91 -64 -57 -39 -18 -9 0
-92 -65 -57 -42 -18 -9 0
-93 -59 -58 -24 -21 -9 0
-94 -60 -58 -27 -21 -9 0
-95 -61 -58 -30 -21 -9 0
-96 -62 -58 -33 -21 -9 0
-97 -63 -58 -36 -21 -9 0
-98 -64 -58 -39 -21 -9 0
-99 -65 -58 -42 -21 -9 0
-100 -60 -59 -27 -24 -9 0
-101 -61 -59 -30 -24 -9 0
-102 -62 -59 -33 -24 -9 0
-103 -63 -59 -36 -24 -9 0
-104 -64 -59 -39 -24 -9 0
-105 -65 -59 -42 -24 -9 0
-106 -61 -60 -30 -27 -9 0
-107 -62 -60 -33 -27 -9 0
-108 -63 -60 -36 -27 -9 0
-109 -64 -60 -39 -27 -9 0
-110 -65 -60 -42 -27 -9 0
-111 -62 -61 -33 -30 -9 0
-112 -63 -61 -36 -30 -9 0
-113 -64 -61 -39 -30 -9 0
-114 -65 -61 -42 -30 -9 0
-115 -63 -62 -36 -33 -9 0
-116 -64 -62 -39 -33 -9 0
-117 -65 -62 -42 -33 -9 0
-118 -64 -63 -39 -36 -9 0
-119 -65 -63 -42 -36 -9 0
-120 -65 -64 -42 -39 -9 0
-76 -67 -66 -18 -15 -12 0
-77 -68 -66 -21 -15 -12 0
-78 -69 -66 -24 -15 -12 0
-79 -70 -66 -27 -15 -12 0
-80 -71 -66 -30 -15 -12 0
-81 -72 -66 -33 -15 -12 0
-82 -73 -66 -36 -15 -12 0
-83 -74 -66 -39 -15 -12 0
-84 -75 -66 -42 -15 -12 0
-85 -68 -67 -21 -18 -12 0
-86 -69 -67 -24 -18 -12 0
-87 -70 -67 -27 -18 -12 0
-88 -71 -67 -30 -18 -12 0
-89 -72 -67 -33 -18 -12 0
-90 -73 -67 -36 -18 -12 0
-91 -74 -67 -39 -18 -12 0
-92 -75 -67 -42 -18 -12 0
-93 -69 -68 -24 -21 -12 0
-94 -70 -68 -27 -21 -12 0
-95 -71 -68 -30 -21 -12 0
-96 -72 -68 -33 -21 -12 0
-97 -73 -68 -36 -21 -12 0
-98 -74 -68 -39 -21 -12 0
-99 -75 -68 -42 -21 -12 0
-100 -70 -69 -27 -24 -12 0
-101 -71 -69 -30 -24 -12 0
-102 -72 -69 -33 -24 -12 0
-103 -73 -69 -36 -24 -12 0
-104 -74 -69 -39 -24 -12 0
-105 -75 -69 -42 -24 -12 0
-106 -71 -70 -30 -27 -12 0
-107 -72 -70 -33 -27 -12 0
-108 -73 -70 -36 -27 -12 0
-109 -74 -70 -39 -27 -12 0
-110 -75 -70 -42 -27 -12 0
-111 -72 -71 -33 -30 -12 0
-112 -73 -71 -36 -30 -12 0
-113 -74 -71 -39 -30 -12 0
-114 -75 -71 -42 -30 -12 0
-115 -73 -72 -36 -33 -12 0
-116 -74 -72 -39 -33 -12 0
-117 -75 -72 -42 -33 -12 0
-118 -74 -73 -39 -36 -12 0
-119 -75 -73 -42 -36 -12 0
-120 -75 -74 -42 -39 -12 0
-85 -77 -76 -21 -18 -15 0
-86 -78 -76 -24 -18 -15 0
-87 -79 -76 -27 -18 -15 0
-88 -80 -76 -30 -18 -15 0
-89 -81 -76 -33 -18 -15 0
-90 -82 -76 -36 -18 -15 0
-91 -83 -76 -39 -18 -15 0
-92 -84 -76 -42 -18 -15 0
-93 -78 -77 -24 -21 -15 0
-94 -79 -77 -27 -21 -15 0
-95 -80 -77 -30 -21 -15 0
-96 -81 -77 -33 -21 -15 0
-97 -82 -77 -36 -21 -15 0
-98 -83 -77 -39 -21 -15 0
-99 -84 -77 -42 -21 -15 0
-100 -79 -78 -27 -24 -15 0
-101 -80 -78 -30 -24 -15 0
-102 -81 -78 -33 -24 -15 0
-103 -82 -78 -36 -24 -15 0
-104 -83 -78 -39 -24 -15 0
-105 -84 -78 -42 -24 -15 0
-106 -80 -79 -30 -27 -15 0
-107 -81 -79 -33 -27 -15 0
-108 -82 -79 -36 -27 -15 0
-109 -83 -79 -39 -27 -15 0
-110 -84 -79 -42 -27 -15 0
-111 -81 -80 -33 -30 -15 0
-112 -82 -80 -36 -30 -15 0
-113 -83 -80 -39 -30 -15 0
-114 -84 -80 -42 -30 -15 0
-115 -82 -81 -36 -33 -15 0
-116 -83 -81 -39 -33 -15 0
-117 -84 -81 -42 -33 -15 0
-118 -83 -82 -39 -36 -15 0
-119 -84 -82 -42 -36 -15 0
-120 -84 -83 -42 -39 -15 0
-93 -86 -85 -24 -21 -18 0
-94 -87 -85 -27 -21 -18 0
-95 -88 -85 -30 -21 -18 0
-96 -89 -85 -33 -21 -18 0
-97 -90 -85 -36 -21 -18 0
-98 -91 -85 -39 -21 -18 0
-99 -92 -85 -42 -21 -18 0
-100 -87 -86 -27 -24 -18 0
-101 -88 -86 -30 -24 -18 0
-102 -89 -86 -33 -24 -18 0
-103 -90 -86 -36 -24 -18 0
-104 -91 -86 -39 -24 -18 0
-105 -92 -86 -42 -24 -18 0
-106 -88 -87 -30 -27 -18 0
-107 -89 -87 -33 -27 -18 0
-108 -90 -87 -36 -27 -18 0
-109 -91 -87 -39 -27 -18 0
-110 -92 -87 -42 -27 -18 0
-111 -89 -88 -33 -30 -18 0
-112 -90 -88 -36 -30 -18 0
-113 -91 -88 -39 -30 -18 0
-114 -92 -88 -42 -30 -18 0
-115 -90 -89 -36 -33 -18 0
-116 -91 -89 -39 -33 -18 0
-117 -92 -89 -42 -33 -18 0
-118 -91 -90 -39 -36 -18 0
-119 -92 -90 -42 -36 -18 0
-120 -92 -91 -42 -39 -18 0
-100 -94 -93 -27 -24 -21 0
-101 -95 -93 -30 -24 -21 0
-102 -96 -93 -33 -24 -21 0
-103 -97 -93 -36 -24 -21 0
-104 -98 -93 -39 -24 -21 0
-105 -99 -93 -42 -24 -21 0
-106 -95 -94 -30 -27 -21 0
-107 -96 -94 -33 -27 -21 0
-108 -97 -94 -36 -27 -21 0
-109 -98 -94 -39 -27 -21 0
-110 -99 -94 -42 -27 -21 0
-111 -96 -95 -33 -30 -21 0
-112 -97 -95 -36 -30 -21 0
-113 -98 -95 -39 -30 -21 0
-114 -99 -95 -42 -30 -21 0
-115 -97 -96 -36 -33 -21 0
-116 -98 -96 -39 -33 -21 0
-117 -99 -96 -42 -33 -21 0
-118 -98 -97 -39 -36 -21 0
-119 -99 -97 -42 -36 -21 0
-120 -99 -98 -42 -39 -21 0
-106 -101 -100 -30 -27 -24 0
-107 -102 -100 -33 -27 -24 0
-108 -103 -100 -36 -27 -24 0
-109 -104 -100 -39 -27 -24 0
-110 -105 -100 -42 -27 -24 0
-111 -102 -101 -33 -30 -24 0
-112 -103 -101 -36 -30 -24 0
-113 -104 -101 -39 -30 -24 0
-114 -105 -101 -42 -30 -24 0
-115 -103 -102 -36 -33 -24 0
-116 -104 -102 -39 -33 -24 0
-117 -105 -102 -42 -33 -24 0
-118 -104 -103 -39 -36 -24 0
-119 -105 -103 -42 -36 -24 0
-120 -105 -104 -42 -39 -24 0
-111 -107 -106 -33 -30 -27 0
-112 -108 -106 -36 -30 -27 0
-113 -109 -106 -39 -30 -27 0
-114 -110 -106 -42 -30 -27 0
-115 -108 -107 -36 -33 -27 0
-116 -109 -107 -39 -33 -27 0
-117 -110 -107 -42 -33 -27 0
-118 -109 -108 -39 -36 -27 0
-119 -110 -108 -42 -36 -27 0
-120 -110 -109 -42 -39 -27 0
-115 -112 -111 -36 -33 -30 0
-116 -113 -111 -39 -33 -30 0
-117 -114 -111 -42 -33 -30 0
-118 -113 -112 -39 -36 -30 0
-119 -114 -112 -42 -36 -30 0
-120 -114 -113 -42 -39 -30 0
-118 -116 -115 -39 -36 -33 0
-119 -117 -115 -42 -36 -33 0
-120 -117 -116 -42 -39 -33 0
-120 -119 -118 -42 -39 -36 0
-43 -7 -1 -8 -2 -3 0
-44 -10 -1 -11 -2 -3 0
-45 -13 -1 -14 -2 -3 0
-46 -16 -1 -17 -2 -3 0
-47 -19 -1 -20 -2 -3 0
-48 -22 -1 -23 -2 -3 0
-49 -25 -1 -26 -2 -3 0
-50 -28 -1 -29 -2 -3 0
-51 -31 -1 -32 -2 -3 0
-52 -34 -1 -35 -2 -3 0
-53 -37 -1 -38 -2 -3 0
-54 -40 -1 -41 -2 -3 0
-55 -10 -7 -11 -8 -3 0
-56 -13 -7 -14 -8 -3 0
-57 -16 -7 -17 -8 -3 0
-58 -19 -7 -20 -8 -3 0
-59 -22 -7 -23 -8 -3 0
-60 -25 -7 -26 -8 -3 0
-61 -28 -7 -29 -8 -3 0
-62 -31 -7 -32 -8 -3 0
-63 -34 -7 -35 -8 -3 0
-64 -37 -7 -38 -8 -3 0
-65 -40 -7 -41 -8 -3 0
-66 -13 -10 -14 -11 -3 0
-67 -16 -10 -17 -11 -3 0
-68 -19 -10 -20 -11 -3 0
-69 -22 -10 -23 -11 -3 0
-70 -25 -10 -26 -11 -3 0
-71 -28 -10 -29 -11 -3 0
-72 -31 -10 -32 -11 -3 0
-73 -34 -10 -35 -11 -3 0
-74 -37 -10 -38 -11 -3 0
-75 -40 -10 -41 -11 -3 0
-76 -16 -13 -17 -14 -3 0
-77 -19 -13 -20 -14 -3 0
-78 -22 -13 -23 -14 -3 0
-79 -25 -13 -26 -14 -3 0
-80 -28 -13 -29 -14 -3 0
-81 -31 -13 -32 -14 -3 0
-82 -34 -13 -35 -14 -3 0
-83 -37 -13 -38 -14 -3 0
-84 -40 -13 -41 -14 -3 0
-85 -19 -16 -20 -17 -3 0
-86 -22 -16 -23 -17 -3 0
-87 -25 -16 -26 -17 -3 0
-88 -28 -16 -29 -17 -3 0
-89 -31 -16 -32 -17 -3 0
-90 -34 -16 -35 -17 -3 0
-91 -37 -16 -38 -17 -3 0
-92 -40 -16 -41 -17 -3 0
-93 -22 -19 -23 -20 -3 0
-94 -25 -19 -26 -20 -3 0
-95 -28 -19 -29 -20 -3 0
-96 -31 -19 -32 -20 -3 0
-97 -34 -19 -35 -20 -3 0
-98 -37 -19 -38 -20 -3 0
-99 -40 -19 -41 -20 -3 0
-100 -25 -22 -26 -23 -3 0
-101 -28 -22 -29 -23 -3 0
-102 -31 -22 -32 -23 -3 0
-103 -34 -22 -35 -23 -3 0
-104 -37 -22 -38 -23 -3 0
-105 -40 -22 -41 -23 -3 0
-106 -28 -25 -29 -26 -3 0
-107 -31 -25 -32 -26 -3 0
-108 -34 -25 -35 -26 -3 0
-109 -37 -25 -38 -26 -3 0
-110 -40 -25 -41 -26 -3 0
-111 -31 -28 -32 -29 -3 0
-112 -34 -28 -35 -29 -3 0
-113 -37 -28 -38 -29 -3 0
-114 -40 -28 -41 -29 -3 0
-115 -34 -31 -35 -32 -3 0
-116 -37 -31 -38 -32 -3 0
-117 -40 -31 -41 -32 -3 0
-118 -37 -34 -38 -35 -3 0
-119 -40 -34 -41 -35 -3 0
-120 -40 -37 -41 -38 -3 0
-55 -44 -43 -11 -8 -2 0
-56 -45 -43 -14 -8 -2 0
-57 -46 -43 -17 -8 -2 0
-58 -47 -43 -20 -8 -2 0
-59 -48 -43 -23 -8 -2 0
-60 -49 -43 -26 -8 -2 0
-61 -50 -43 -29 -8 -2 0
-62 -51 -43 -32 -8 -2 0
-63 -52 -43 -35 -8 -2 0
-64 -53 -43 -38 -8 -2 0
-65 -54 -43 -41 -8 -2 0
-66 -45 -44 -14 -11 -2 0
-67 -46 -44 -17 -11 -2 0
-68 -47 -44 -20 -11 -2 0
-69 -48 -44 -23 -11 -2 0
-70 -49 -44 -26 -11 -2 0
-71 -50 -44 -29 -11 -2 0
-72 -51 -44 -32 -11 -2 0
-73 -52 -44 -35 -11 -2 0
-74 -53 -44 -38 -11 -2 0
-75 -54 -44 -41 -11 -2 0
-76 -46 -45 -17 -14 -2 0
-77 -47 -45 -20 -14 -2 0
-78 -48 -45 -23 -14 -2 0
-79 -49 -45 -26 -14 -2 0
-80 -50 -45 -29 -14 -2 0
-81 -51 -45 -32 -14 -2 0
-82 -52 -45 -35 -14 -2 0
-83 -53 -45 -38 -14 -2 0
-84 -54 -45 -41 -14 -2 0
-85 -47 -46 -20 -17 -2 0
-86 -48 -46 -23 -17 -2 0
-87 -49 -46 -26 -17 -2 0
-88 -50 -46 -29 -17 -2 0
-89 -51 -46 -32 -17 -2 0
-90 -52 -46 -35 -17 -2 0
-91 -53 -46 -38 -17 -2 0
-92 -54 -46 -41 -17 -2 0
-93 -48 -47 -23 -20 -2 0
-94 -49 -47 -26 -20 -2 0
-95 -50 -47 -29 -20 -2 0
-96 -51 -47 -32 -20 -2 0
-97 -52 -47 -35 -20 -2 0
-98 -53 -47 -38 -20 -2 0
-99 -54 -47 -41 -20 -2 0
-100 -49 -48 -26 -23 -2 0
-101 -50 -48 -29 -23 -2 0
-102 -51 -48 -32 -23 -2 0
-103 -52 -48 -35 -23 -2 0
-104 -53 -48 -38 -23 -2 0
-105 -54 -48 -41 -23 -2 0
-106 -50 -49 -29 -26 -2 0
-107 -51 -49 -32 -26 -2 0
-108 -52 -49 -35 -26 -2 0
-109 -53 -49 -38 -26 -2 0
-110 -54 -49 -41 -26 -2 0
-111 -51 -50 -32 -29 -2 0
-112 -52 -50 -35 -29 -2 0
-113 -53 -50 -38 -29 -2 0
-114 -54 -50 -41 -29 -2 0
-115 -52 -51 -35 -32 -2 0
-116 -53 -51 -38 -32 -2 0
-117 -54 -51 -41 -32 -2 0
-118 -53 -52 -38 -35 -2 0
-119 -54 -52 -41 -35 -2 0
-120 -54 -53 -41 -38 -2 0
-66 -56 -55 -14 -11 -8 0
-67 -57 -55 -17 -11 -8 0
-68 -58 -55 -20 -11 -8 0
-69 -59 -55 -23 -11 -8 0
-70 -60 -55 -26 -11 -8 0
-71 -61 -55 -29 -11 -8 0
-72 -62 -55 -32 -11 -8 0
-73 -63 -55 -35 -11 -8 0
-74 -64 -55 -38 -11 -8 0
-75 -65 -55 -41 -11 -8 0
-76 -57 -56 -17 -14 -8 0
-77 -58 -56 -20 -14 -8 0
-78 -59 -56 -23 -14 -8 0
-79 -60 -56 -26 -14 -8 0
-80 -61 -56 -29 -14 -8 0
-81 -62 -56 -32 -14 -8 0
-82 -63 -56 -35 -14 -8 0
-83 -64 -56 -38 -14 -8 0
-84 -65 -56 -41 -14 -8 0
-85 -58 -57 -20 -17 -8 0
-86 -59 -57 -23 -17 -8 0
-87 -60 -57 -26 -17 -8 0
-88 -61 -57 -29 -17 -8 0
-89 -62 -57 -32 -17 -8 0
-90 -63 -57 -35 -17 -8 0
-91 -64 -57 -38 -17 -8 0
-92 -65 -57 -41 -17 -8 0
-93 -59 -58 -23 -20 -8 0
-94 -60 -58 -26 -20 -8 0
-95 -61 -58 -29 -20 -8 0
-96 -62 -58 -32 -20 -8 0
-97 -63 -58 -35 -20 -8 0
-98 -64 -58 -38 -20 -8 0
-99 -65 -58 -41 -20 -8 0
-100 -60 -59 -26 -23 -8 0
-101 -61 -59 -29 -23 -8 0
-102 -62 -59 -32 -23 -8 0
-103 -63 -59 -35 -23 -8 0
-104 -64 -59 -38 -23 -8 0
-105 -65 -59 -41 -23 -8 0
-106 -61 -60 -29 -26 -8 0
-107 -62 -60 -32 -26 -8 0
-108 -63 -60 -35 -26 -8 0
-109 -64 -60 -38 -26 -8 0
-110 -65 -60 -41 -26 -8 0
-111 -62 -61 -32 -29 -8 0
-112 -63 -61 -35 -29 -8 0
-113 -64 -61 -38 -29 -8 0
-114 -65 -61 -41 -29 -8 0
-115 -63 -62 -35 -32 -8 0
-116 -64 -62 -38 -32 -8 0
-117 -65 -62 -41 -32 -8 0
-118 -64 -63 -38 -35 -8 0
-119 -65 -63 -41 -35 -8 0
-120 -65 -64 -41 -38 -8 0
-76 -67 -66 -17 -14 -11 0
-77 -68 -66 -20 -14 -11 0
-78 -69 -66 -23 -14 -11 0
-79 -70 -66 -26 -14 -11 0
-80 -71 -66 -29 -14 -11 0
-81 -72 -66 -32 -14 -11 0
-82 -73 -66 -35 -14 -11 0
-83 -74 -66 -38 -14 -11 0
-84 -75 -66 -41 -14 -11 0
-85 -68 -67 -20 -17 -11 0
-86 -69 -67 -23 -17 -11 0
-87 -70 -67 -26 -17 -11 0
-88 -71 -67 -29 -17 -11 0
-89 -72 -67 -32 -17 -11 0
-90 -73 -67 -35 -17 -11 0
-91 -74 -67 -38 -17 -11 0
-92 -75 -67 -41 -17 -11 0
-93 -69 -68 -23 -20 -11 0
-94 -70 -68 -26 -20 -11 0
-95 -71 -68 -29 -20 -11 0
-96 -72 -68 -32 -20 -11 0
-97 -73 -68 -35 -20 -11 0
-98 -74 -68 -38 -20 -11 0
-99 -75 -68 -41 -20 -11 0
-100 -70 -69 -26 -23 -11 0
-101 -71 -69 -29 -23 -11 0
-102 -72 -69 -32 -23 -11 0
-103 -73 -69 -35 -23 -11 0
-104 -74 -69 -38 -23 -11 0
-105 -75 -69 -41 -23 -11 0
-106 -71 -70 -29 -26 -11 0
-107 -72 -70 -32 -26 -11 0
-108 -73 -70 -35 -26 -11 0
-109 -74 -70 -38 -26 -11 0
-110 -75 -70 -41 -26 -11 0
-111 -72 -71 -32 -29 -11 0
-112 -73 -71 -35 -29 -11 0
-113 -74 -71 -38 -29 -11 0
-114 -75 -71 -41 -29 -11 0
-115 -73 -72 -35 -32 -11 0
-116 -74 -72 -38 -32 -11 0
-117 -75 -72 -41 -32 -11 0
-118 -74 -73 -38 -35 -11 0
-119 -75 -73 -41 -35 -11 0
-120 -75 -74 -41 -38 -11 0
-85 -77 -76 -20 -17 -14 0
-86 -78 -76 -23 -17 -14 0
-87 -79 -76 -26 -17 -14 0
-88 -80 -76 -29 -17 -14 0
-89 -81 -76 -32 -17 -14 0
-90 -82 -76 -35 -17 -14 0
-91 -83 -76 -38 -17 -14 0
-92 -84 -76 -41 -17 -14 0
-93 -78 -77 -23 -20 -14 0
-94 -79 -77 -26 -20 -14 0
-95 -80 -77 -29 -20 -14 0
-96 -81 -77 -32 -20 -14 0
-97 -82 -77 -35 -20 -14 0
-98 -83 -77 -38 -20 -14 0
-99 -84 -77 -41 -20 -14 0
-100 -79 -78 -26 -23 -14 0
-101 -80 -78 -29 -23 -14 0
-102 -81 -78 -32 -23 -14 0
-103 -82 -78 -35 -23 -14 0
-104 -83 -78 -38 -23 -14 0
-105 -84 -78 -41 -23 -14 0
-106 -80 -79 -29 -26 -14 0
-107 -81 -79 -32 -26 -14 0
-108 -82 -79 -35 -26 -14 0
-109 -83 -79 -38 -26 -14 0
-110 -84 -79 -41 -26 -14 0
-111 -81 -80 -32 -29 -14 0
-112 -82 -80 -35 -29 -14 0
-113 -83 -80 -38 -29 -14 0
-114 -84 -80 -41 -29 -14 0
-115 -82 -81 -35 -32 -14 0
-116 -83 -81 -38 -32 -14 0
-117 -84 -81 -41 -32 -14 0
-118 -83 -82 -38 -35 -14 0
-119 -84 -82 -41 -35 -14 0
-120 -84 -83 -41 -38 -14 0
-93 -86 -85 -23 -20 -17 0
-94 -87 -85 -26 -20 -17 0
-95 -88 -85 -29 -20 -17 0
-96 -89 -85 -32 -20 -17 0
-97 -90 -85 -35 -20 -17 0
-98 -91 -85 -38 -20 -17 0
-99 -92 -85 -41 -20 -17 0
-100 -87 -86 -26 -23 -17 0
-101 -88 -86 -29 -23 -17 0
-102 -89 -86 -32 -23 -17 0
-103 -90 -86 -35 -23 -17 0
-104 -91 -86 -38 -23 -17 0
-105 -92 -86 -41 -23 -17 0
-106 -88 -87 -29 -26 -17 0
-107 -89 -87 -32 -26 -17 0
-108 -90 -87 -35 -26 -17 0
-109 -91 -87 -38 -26 -17 0
-110 -92 -87 -41 -26 -17 0
-111 -89 -88 -32 -29 -17 0
-112 -90 -88 -35 -29 -17 0
-113 -91 -88 -38 -29 -17 0
-114 -92 -88 -41 -29 -17 0
-115 -90 -89 -35 -32 -17 0
-116 -91 -89 -38 -32 -17 0
-117 -92 -89 -41 -32 -17 0
-118 -91 -90 -38 -35 -17 0
-119 -92 -90 -41 -35 -17 0
-120 -92 -91 -41 -38 -17 0
-100 -94 -93 -26 -23 -20 0
-101 -95 -93 -29 -23 -20 0
-102 -96 -93 -32 -23 -20 0
-103 -97 -93 -35 -23 -20 0
-104 -98 -93 -38 -23 -20 0
-105 -99 -93 -41 -23 -20 0
-106 -95 -94 -29 -26 -20 0
-107 -96 -94 -32 -26 -20 0
-108 -97 -94 -35 -26 -20 0
-109 -98 -94 -38 -26 -20 0
-110 -99 -94 -41 -26 -20 0
-111 -96 -95 -32 -29 -20 0
-112 -97 -95 -35 -29 -20 0
-113 -98 -95 -38 -29 -20 0
-114 -99 -95 -41 -29 -20 0
-115 -97 -96 -35 -32 -20 0
-116 -98 -96 -38 -32 -20 0
-117 -99 -96 -41 -32 -20 0
-118 -98 -97 -38 -35 -20 0
-119 -99 -97 -41 -35 -20 0
-120 -99 -98 -41 -38 -20 0
-106 -101 -100 -29 -26 -23 0
-107 -102 -100 -32 -26 -23 0
-108 -103 -100 -35 -26 -23 0
-109 -104 -100 -38 -26 -23 0
-110 -105 -100 -41 -26 -23 0
-111 -102 -101 -32 -29 -23 0
-112 -103 -101 -35 -29 -23 0
-113 -104 -101 -38 -29 -23 0
-114 -105 -101 -41 -29 -23 0
-115 -103 -102 -35 -32 -23 0
-116 -104 -102 -38 -32 -23 0
-117 -105 -102 -41 -32 -23 0
-118 -104 -103 -38 -35 -23 0
-119 -105 -103 -41 -35 -23 0
-120 -105 -104 -41 -38 -23 0
-111 -107 -106 -32 -29 -26 0
-112 -108 -106 -35 -29 -26 0
-113 -109 -106 -38 -29 -26 0
-114 -110 -106 -41 -29 -26 0
-115 -108 -107 -35 -32 -26 0
-116 -109 -107 -38 -32 -26 0
-117 -110 -107 -41 -32 -26 0
-118 -109 -108 -38 -35 -26 0
-119 -110 -108 -41 -35 -26 0
-120 -110 -109 -41 -38 -26 0
-115 -112 -111 -35 -32 -29 0
-116 -113 -111 -38 -32 -29 0
-117 -114 -111 -41 -32 -29 0
-118 -113 -112 -38 -35 -29 0
-119 -114 -112 -41 -35 -29 0
-120 -114 -113 -41 -38 -29 0
-118 -116 -115 -38 -35 -32 0
-119 -117 -115 -41 -35 -32 0
-120 -117 -116 -41 -38 -32 0
-120 -119 -118 -41 -38 -35 0
-55 -44 -43 -10 -7 -1 0
-56 -45 -43 -13 -7 -1 0
-57 -46 -43 -16 -7 -1 0
-58 -47 -43 -19 -7 -1 0
-59 -48 -43 -22 -7 -1 0
-60 -49 -43 -25 -7 -1 0
-61 -50 -43 -28 -7 -1 0
-62 -51 -43 -31 -7 -1 0
-63 -52 -43 -34 -7 -1 0
-64 -53 -43 -37 -7 -1 0
-65 -54 -43 -40 -7 -1 0
-66 -45 -44 -13 -10 -1 0
-67 -46 -44 -16 -10 -1 0
-68 -47 -44 -19 -10 -1 0
-69 -48 -44 -22 -10 -1 0
-70 -49 -44 -25 -10 -1 0
-71 -50 -44 -28 -10 -1 0
-72 -51 -44 -31 -10 -1 0
-73 -52 -44 -34 -10 -1 0
-74 -53 -44 -37 -10 -1 0
-75 -54 -44 -40 -10 -1 0
-76 -46 -45 -16 -13 -1 0
-77 -47 -45 -19 -13 -1 0
-78 -48 -45 -22 -13 -1 0
-79 -49 -45 -25 -13 -1 0
-80 -50 -45 -28 -13 -1 0
-81 -51 -45 -31 -13 -1 0
-82 -52 -45 -34 -13 -1 0
-83 -53 -45 -37 -13 -1 0
-84 -54 -45 -40 -13 -1 0
-85 -47 -46 -19 -16 -1 0
-86 -48 -46 -22 -16 -1 0
-87 -49 -46 -25 -16 -1 0
-88 -50 -46 -28 -16 -1 0
-89 -51 -46 -31 -16 -1 0
-90 -52 -46 -34 -16 -1 0
-91 -53 -46 -37 -16 -1 0
-92 -54 -46 -40 -16 -1 0
-93 -48 -47 -22 -19 -1 0
-94 -49 -47 -25 -19 -1 0
-95 -50 -47 -28 -19 -1 0
-96 -51 -47 -31 -19 -1 0
-97 -52 -47 -34 -19 -1 0
-98 -53 -47 -37 -19 -1 0
-99 -54 -47 -40 -19 -1 0
-100 -49 -48 -25 -22 -1 0
-101 -50 -48 -28 -22 -1 0
-102 -51 -48 -31 -22 -1 0
-103 -52 -48 -34 -22 -1 0
-104 -53 -48 -37 -22 -1 0
-105 -54 -48 -40 -22 -1 0
-106 -50 -49 -28 -25 -1 0
-107 -51 -49 -31 -25 -1 0
-108 -52 -49 -34 -25 -1 0
-109 -53 -49 -37 -25 -1 0
-110 -54 -49 -40 -25 -1 0
-111 -51 -50 -31 -28 -1 0
-112 -52 -50 -34 -28 -1 0
-113 -53 -50 -37 -28 -1 0
-114 -54 -50 -40 -28 -1 0
-115 -52 -51 -34 -31 -1 0
-116 -53 -51 -37 -31 -1 0
-117 -54 -51 -40 -31 -1 0
-118 -53 -52 -37 -34 -1 0
-119 -54 -52 -40 -34 -1 0
-120 -54 -53 -40 -37 -1 0
-66 -56 -55 -13 -10 -7 0
-67 -57 -55 -16 -10 -7 0
-68 -58 -55 -19 -10 -7 0
-69 -59 -55 -22 -10 -7 0
-70 -60 -55 -25 -10 -7 0
-71 -61 -55 -28 -10 -7 0
-72 -62 -55 -31 -10 -7 0
-73 -63 -55 -34 -10 -7 0
-74 -64 -55 -37 -10 -7 0
-75 -65 -55 -40 -10 -7 0
-76 -57 -56 -16 -13 -7 0
-77 -58 -56 -19 -13 -7 0
-78 -59 -56 -22 -13 -7 0
-79 -60 -56 -25 -13 -7 0
-80 -61 -56 -28 -13 -7 0
-81 -62 -56 -31 -13 -7 0
-82 -63 -56 -34 -13 -7 0
-83 -64 -56 -37 -13 -7 0
-84 -65 -56 -40 -13 -7 0
-85 -58 -57 -19 -16 -7 0
-86 -59 -57 -22 -16 -7 0
-87 -60 -57 -25 -16 -7 0
-88 -61 -57 -28 -16 -7 0
-89 -62 -57 -31 -16 -7 0
-90 -63 -57 -34 -16 -7 0
-91 -64 -57 -37 -16 -7 0
-92 -65 -57 -40 -16 -7 0
-93 -59 -58 -22 -19 -7 0
-94 -60 -58 -25 -19 -7 0
-95 -61 -58 -28 -19 -7 0
-96 -62 -58 -31 -19 -7 0
-97 -63 -58 -34 -19 -7 0
-98 -64 -58 -37 -19 -7 0
-99 -65 -58 -40 -19 -7 0
-100 -60 -59 -25 -22 -7 0
-101 -61 -59 -28 -22 -7 0
-102 -62 -59 -31 -22 -7 0
-103 -63 -59 -34 -22 -7 0
-104 -64 -59 -37 -22 -7 0
-105 -65 -59 -40 -22 -7 0
-106 -61 -60 -28 -25 -7 0
-107 -62 -60 -31 -25 -7 0
-108 -63 -60 -34 -25 -7 0
-109 -64 -60 -37 -25 -7 0
-110 -65 -60 -40 -25 -7 0
-111 -62 -61 -31 -28 -7 0
-112 -63 -61 -34 -28 -7 0
-113 -64 -61 -37 -28 -7 0
-114 -65 -61 -40 -28 -7 0
-115 -63 -62 -34 -31 -7 0
-116 -64 -62 -37 -31 -7 0
-117 -65 -62 -40 -31 -7 0
-118 -64 -63 -37 -34 -7 0
-119 -65 -63 -40 -34 -7 0
-120 -65 -64 -40 -37 -7 0
-76 -67 -66 -16 -13 -10 0
-77 -68 -66 -19 -13 -10 0
-78 -69 -66 -22 -13 -10 0
-79 -70 -66 -25 -13 -10 0
-80 -71 -66 -28 -13 -10 0
-81 -72 -66 -31 -13 -10 0
-82 -73 -66 -34 -13 -10 0
-83 -74 -66 -37 -13 -10 0
-84 -75 -66 -40 -13 -10 0
-85 -68 -67 -19 -16 -10 0
-86 -69 -67 -22 -16 -10 0
-87 -70 -67 -25 -16 -10 0
-88 -71 -67 -28 -16 -10 0
-89 -72 -67 -31 -16 -10 0
-90 -73 -67 -34 -16 -10 0
-91 -74 -67 -37 -16 -10 0
-92 -75 -67 -40 -16 -10 0
-93 -69 -68 -22 -19 -10 0
-94 -70 -68 -25 -19 -10 0
-95 -71 -68 -28 -19 -10 0
-96 -72 -68 -31 -19 -10 0
-97 -73 -68 -34 -19 -10 0
-98 -74 -68 -37 -19 -10 0
-99 -75 -68 -40 -19 -10 0
-100 -70 -69 -25 -22 -10 0
-101 -71 -69 -28 -22 -10 0
-102 -72 -69 -31 -22 -10 0
-103 -73 -69 -34 -22 -10 0
-104 -74 -69 -37 -22 -10 0
-105 -75 -69 -40 -22 -10 0
-106 -71 -70 -28 -25 -10 0
-107 -72 -70 -31 -25 -10 0
-108 -73 -70 -34 -25 -10 0
-109 -74 -70 -37 -25 -10 0
-110 -75 -70 -40 -25 -10 0
-111 -72 -71 -31 -28 -10 0
-112 -73 -71 -34 -28 -10 0
-113 -74 -71 -37 -28 -10 0
-114 -75 -71 -40 -28 -10 0
-115 -73 -72 -34 -31 -10 0
-116 -74 -72 -37 -31 -10 0
-117 -75 -72 -40 -31 -10 0
-118 -74 -73 -37 -34 -10 0
-119 -75 -73 -40 -34 -10 0
-120 -75 -74 -40 -37 -10 0
-85 -77 -76 -19 -16 -13 0
-86 -78 -76 -22 -16 -13 0
-87 -79 -76 -25 -16 -13 0
-88 -80 -76 -28 -16 -13 0
-89 -81 -76 -31 -16 -13 0
-90 -82 -76 -34 -16 -13 0
-91 -83 -76 -37 -16 -13 0
-92 -84 -76 -40 -16 -13 0
-93 -78 -77 -22 -19 -13 0
-94 -79 -77 -25 -19 -13 0
-95 -80 -77 -28 -19 -13 0
-96 -81 -77 -31 -19 -13 0
-97 -82 -77 -34 -19 -13 0
-98 -83 -77 -37 -19 -13 0
-99 -84 -77 -40 -19 -13 0
-100 -79 -78 -25 -22 -13 0
-101 -80 -78 -28 -22 -13 0
-102 -81 -78 -31 -22 -13 0
-103 -82 -78 -34 -22 -13 0
-104 -83 -78 -37 -22 -13 0
-105 -84 -78 -40 -22 -13 0
-106 -80 -79 -28 -25 -13 0
-107 -81 -79 -31 -25 -13 0
-108 -82 -79 -34 -25 -13 0
-109 -83 -79 -37 -25 -13 0
-110 -84 -79 -40 -25 -13 0
-111 -81 -80 -31 -28 -13 0
-112 -82 -80 -34 -28 -13 0
-113 -83 -80 -37 -28 -13 0
-114 -84 -80 -40 -28 -13 0
-115 -82 -81 -34 -31 -13 0
-116 -83 -81 -37 -31 -13 0
-117 -84 -81 -40 -31 -13 0
-118 -83 -82 -37 -34 -13 0
-119 -84 -82 -40 -34 -13 0
-120 -84 -83 -40 -37 -13 0
-93 -86 -85 -22 -19 -16 0
-94 -87 -85 -25 -19 -16 0
-95 -88 -85 -28 -19 -16 0
-96 -89 -85 -31 -19 -16 0
-97 -90 -85 -34 -19 -16 0
-98 -91 -85 -37 -19 -16 0
-99 -92 -85 -40 -19 -16 0
-100 -87 -86 -25 -22 -16 0
-101 -88 -86 -28 -22 -16 0
-102 -89 -86 -31 -22 -16 0
-103 -90 -86 -34 -22 -16 0
-104 -91 -86 -37 -22 -16 0
-105 -92 -86 -40 -22 -16 0
-106 -88 -87 -28 -25 -16 0
-107 -89 -87 -31 -25 -16 0
-108 -90 -87 -34 -25 -16 0
-109 -91 -87 -37 -25 -16 0
-110 -92 -87 -40 -25 -16 0
-111 -89 -88 -31 -28 -16 0
-112 -90 -88 -34 -28 -16 0
-113 -91 -88 -37 -28 -16 0
-114 -92 -88 -40 -28 -16 0
-115 -90 -89 -34 -31 -16 0
-116 -91 -89 -37 -31 -16 0
-117 -92 -89 -40 -31 -16 0
-118 -91 -90 -37 -34 -16 0
-119 -92 -90 -40 -34 -16 0
-120 -92 -91 -40 -37 -16 0
-100 -94 -93 -25 -22 -19 0
-101 -95 -93 -28 -22 -19 0
-102 -96 -93 -31 -22 -19 0
-103 -97 -93 -34 -22 -19 0
-104 -98 -93 -37 -22 -19 0
-105 -99 -93 -40 -22 -19 0
-106 -95 -94 -28 -25 -19 0
-107 -96 -94 -31 -25 -19 0
-108 -97 -94 -34 -25 -19 0
-109 -98 -94 -37 -25 -19 0
-110 -99 -94 -40 -25 -19 0
-111 -96 -95 -31 -28 -19 0
-112 -97 -95 -34 -28 -19 0
-113 -98 -95 -37 -28 -19 0
-114 -99 -95 -40 -28 -19 0
-115 -97 -96 -34 -31 -19 0
-116 -98 -96 -37 -31 -19 0
-117 -99 -96 -40 -31 -19 0
-118 -98 -97 -37 -34 -19 0
-119 -99 -97 -40 -34 -19 0
-120 -99 -98 -40 -37 -19 0
-106 -101 -100 -28 -25 -22 0
-107 -102 -100 -31 -25 -22 0
-108 -103 -100 -34 -25 -22 0
-109 -104 -100 -37 -25 -22 0
-110 -105 -100 -40 -25 -22 0
-111 -102 -101 -31 -28 -22 0
-112 -103 -101 -34 -28 -22 0
-113 -104 -101 -37 -28 -22 0
-114 -105 -101 -40 -28 -22 0
-115 -103 -102 -34 -31 -22 0
-116 -104 -102 -37 -31 -22 0
-117 -105 -102 -40 -31 -22 0
-118 -104 -103 -37 -34 -22 0
-119 -105 -103 -40 -34 -22 0
-120 -105 -104 -40 -37 -22 0
-111 -107 -106 -31 -28 -25 0
-112 -108 -106 -34 -28 -25 0
-113 -109 -106 -37 -28 -25 0
-114 -110 -106 -40 -28 -25 0
-115 -108 -107 -34 -31 -25 0
-116 -109 -107 -37 -31 -25 0
-117 -110 -107 -40 -31 -25 0
-118 -109 -108 -37 -34 -25 0
-119 -110 -108 -40 -34 -25 0
-120 -110 -109 -40 -37 -25 0
-115 -112 -111 -34 -31 -28 0
-116 -113 -111 -37 -31 -28 0
-117 -114 -111 -40 -31 -28 0
-118 -113 -112 -37 -34 -28 0
-119 -114 -112 -40 -34 -28 0
-120 -114 -113 -40 -37 -28 0
-118 -116 -115 -37 -34 -31 0
-119 -117 -115 -40 -34 -31 0
-120 -117 -116 -40 -37 -31 0
-120 -119 -118 -40 -37 -34 0
-66 -56 -55 -45 -44 -43 0
-67 -57 -55 -46 -44 -43 0
-68 -58 -55 -47 -44 -43 0
-69 -59 -55 -48 -44 -43 0
-70 -60 -55 -49 -44 -43 0
-71 -61 -55 -50 -44 -43 0
-72 -62 -55 -51 -44 -43 0
-73 -63 -55 -52 -44 -43 0
-74 -64 -55 -53 -44 -43 0
-75 -65 -55 -54 -44 -43 0
-76 -57 -56 -46 -45 -43 0
-77 -58 -56 -47 -45 -43 0
-78 -59 -56 -48 -45 -43 0
-79 -60 -56 -49 -45 -43 0
-80 -61 -56 -50 -45 -43 0
-81 -62 -56 -51 -45 -43 0
-82 -63 -56 -52 -45 -43 0
-83 -64 -56 -53 -45 -43 0
-84 -65 -56 -54 -45 -43 0
-85 -58 -57 -47 -46 -43 0
-86 -59 -57 -48 -46 -43 0
-87 -60 -57 -49 -46 -43 0
-88 -61 -57 -50 -46 -43 0
-89 -62 -57 -51 -46 -43 0
-90 -63 -57 -52 -46 -43 0
-91 -64 -57 -53 -46 -43 0
-92 -65 -57 -54 -46 -43 0
-93 -59 -58 -48 -47 -43 0
-94 -60 -58 -49 -47 -43 0
-95 -61 -58 -50 -47 -43 0
-96 -62 -58 -51 -47 -43 0
-97 -63 -58 -52 -47 -43 0
-98 -64 -58 -53 -47 -43 0
-99 -65 -58 -54 -47 -43 0
-100 -60 -59 -49 -48 -43 0
-101 -61 -59 -50 -48 -43 0
-102 -62 -59 -51 -48 -43 0
-103 -63 -59 -52 -48 -43 0
-104 -64 -59 -53 -48 -43 0
-105 -65 -59 -54 -48 -43 0
-106 -61 -60 -50 -49 -43 0
-107 -62 -60 -51 -49 -43 0
-108 -63 -60 -52 -49 -43 0
-109 -64 -60 -53 -49 -43 0
-110 -65 -60 -54 -49 -43 0
-111 -62 -61 -51 -50 -43 0
-112 -63 -61 -52 -50 -43 0
-113 -64 -61 -53 -50 -43 0
-114 -65 -61 -54 -50 -43 0
-115 -63 -62 -52 -51 -43 0
-116 -64 -62 -53 -51 -43 0
-117 -65 -62 -54 -51 -43 0
-118 -64 -63 -53 -52 -43 0
-119 -65 -63 -54 -52 -43 0
-120 -65 -64 -54 -53 -43 0
-76 -67 -66 -46 -45 -44 0
-77 -68 -66 -47 -45 -44 0
-78 -69 -66 -48 -45 -44 0
-79 -70 -66 -49 -45 -44 0
-80 -71 -66 -50 -45 -44 0
-81 -72 -66 -51 -45 -44 0
-82 -73 -66 -52 -45 -44 0
-83 -74 -66 -53 -45 -44 0
-84 -75 -66 -54 -45 -44 0
-85 -68 -67 -47 -46 -44 0
-86 -69 -67 -48 -46 -44 0
-87 -70 -67 -49 -46 -44 0
-88 -71 -67 -50 -46 -44 0
-89 -72 -67 -51 -46 -44 0
-90 -73 -67 -52 -46 -44 0
-91 -74 -67 -53 -46 -44 0
-92 -75 -67 -54 -46 -44 0
-93 -69 -68 -48 -47 -44 0
-94 -70 -68 -49 -47 -44 0
-95 -71 -68 -50 -47 -44 0
-96 -72 -68 -51 -47 -44 0
-97 -73 -68 -52 -47 -44 0
-98 -74 -68 -53 -47 -44 0
-99 -75 -68 -54 -47 -44 0
-100 -70 -69 -49 -48 -44 0
-101 -71 -69 -50 -48 -44 0
-102 -72 -69 -51 -48 -44 0
-103 -73 -69 -52 -48 -44 0
-104 -74 -69 -53 -48 -44 0
-105 -75 -69 -54 -48 -44 0
-106 -71 -70 -50 -49 -44 0
-107 -72 -70 -51 -49 -44 0
-108 -73 -70 -52 -49 -44 0
-109 -74 -70 -53 -49 -44 0
-110 -75 -70 -54 -49 -44 0
-111 -72 -71 -51 -50 -44 0
-112 -73 -71 -52 -50 -44 0
-113 -74 -71 -53 -50 -44 0
-114 -75 -71 -54 -50 -44 0
-115 -73 -72 -52 -51 -44 0
-116 -74 -72 -53 -51 -44 0
-117 -75 -72 -54 -51 -44 0
-118 -74 -73 -53 -52 -44 0
-119 -75 -73 -54 -52 -44 0
-120 -75 -74 -54 -53 -44 0
-85 -77 -76 -47 -46 -45 0
-86 -78 -76 -48 -46 -45 0
-87 -79 -76 -49 -46 -45 0
-88 -80 -76 -50 -46 -45 0
-89 -81 -76 -51 -46 -45 0
-90 -82 -76 -52 -46 -45 0
-91 -83 -76 -53 -46 -45 0
-92 -84 -76 -54 -46 -45 0
-93 -78 -77 -48 -47 -45 0
-94 -79 -77 -49 -47 -45 0
-95 -80 -77 -50 -47 -45 0
-96 -81 -77 -51 -47 -45 0
-97 -82 -77 -52 -47 -45 0
-98 -83 -77 -53 -47 -45 0
-99 -84 -77 -54 -47 -45 0
-100 -79 -78 -49 -48 -45 0
-101 -80 -78 -50 -48 -45 0
-102 -81 -78 -51 -48 -45 0
-103 -82 -78 -52 -48 -45 0
-104 -83 -78 -53 -48 -45 0
-105 -84 -78 -54 -48 -45 0
-106 -80 -79 -50 -49 -45 0
-107 -81 -79 -51 -49 -45 0
-108 -82 -79 -52 -49 -45 0
-109 -83 -79 -53 -49 -45 0
-110 -84 -79 -54 -49 -45 0
-111 -81 -80 -51 -50 -45 0
-112 -82 -80 -52 -50 -45 0
-113 -83 -80 -53 -50 -45 0
-114 -84 -80 -54 -50 -45 0
-115 -82 -81 -52 -51 -45 0
-116 -83 -81 -53 -51 -45 0
-117 -84 -81 -54 -51 -45 0
-118 -83 -82 -53 -52 -45 0
-119 -84 -82 -54 -52 -45 0
-120 -84 -83 -54 -53 -45 0
-93 -86 -85 -48 -47 -46 0
-94 -87 -85 -49 -47 -46 0
-95 -88 -85 -50 -47 -46 0
-96 -89 -85 -51 -47 -46 0
-97 -90 -85 -52 -47 -46 0
-98 -91 -85 -53 -47 -46 0
-99 -92 -85 -54 -47 -46 0
-100 -87 -86 -49 -48 -46 0
-101 -88 -86 -50 -48 -46 0
-102 -89 -86 -51 -48 -46 0
-103 -90 -86 -52 -48 -46 0
-104 -91 -86 -53 -48 -46 0
-105 -92 -86 -54 -48 -46 0
-106 -88 -87 -50 -49 -46 0
-107 -89 -87 -51 -49 -46 0
-108 -90 -87 -52 -49 -46 0
-109 -91 -87 -53 -49 -46 0
-110 -92 -87 -54 -49 -46 0
-111 -89 -88 -51 -50 -46 0
-112 -90 -88 -52 -50 -46 0
-113 -91 -88 -53 -50 -46 0
-114 -92 -88 -54 -50 -46 0
-115 -90 -89 -52 -51 -46 0
-116 -91 -89 -53 -51 -46 0
-117 -92 -89 -54 -51 -46 0
-118 -91 -90 -53 -52 -46 0
-119 -92 -90 -54 -52 -46 0
-120 -92 -91 -54 -53 -46 0
-100 -94 -93 -49 -48 -47 0
-101 -95 -93 -50 -48 -47 0
-102 -96 -93 -51 -48 -47 0
-103 -97 -93 -52 -48 -47 0
-104 -98 -93 -53 -48 -47 0
-105 -99 -93 -54 -48 -47 0
-106 -95 -94 -50 -49 -47 0
-107 -96 -94 -51 -49 -47 0
-108 -97 -94 -52 -49 -47 0
-109 -98 -94 -53 -49 -47 0
-110 -99 -94 -54 -49 -47 0
-111 -96 -95 -51 -50 -47 0
-112 -97 -95 -52 -50 -47 0
-113 -98 -95 -53 -50 -47 0
-114 -99 -95 -54 -50 -47 0
-115 -97 -96 -52 -51 -47 0
-116 -98 -96 -53 -51 -47 0
-117 -99 -96 -54 -51 -47 0
-118 -98 -97 -53 -52 -47 0
-119 -99 -97 -54 -52 -47 0
-120 -99 -98 -54 -53 -47 0
-106 -101 -100 -50 -49 -48 0
-107 -102 -100 -51 -49 -48 0
-108 -103 -100 -52 -49 -48 0
-109 -104 -100 -53 -49 -48 0
-110 -105 -100 -54 -49 -48 0
-111 -102 -101 -51 -50 -48 0
-112 -103 -101 -52 -50 -48 0
-113 -104 -101 -53 -50 -48 0
-114 -105 -101 -54 -50 -48 0
-115 -103 -102 -52 -51 -48 0
-116 -104 -102 -53 -51 -48 0
-117 -105 -102 -54 -51 -48 0
-118 -104 -103 -53 -52 -48 0
-119 -105 -103 -54 -52 -48 0
-120 -105 -104 -54 -53 -48 0
-111 -107 -106 -51 -50 -49 0
-112 -108 -106 -52 -50 -49 0
-113 -109 -106 -53 -50 -49 0
-114 -110 -106 -54 -50 -49 0
-115 -108 -107 -52 -51 -49 0
-116 -109 -107 -53 -51 -49 0
-117 -110 -107 -54 -51 -49 0
-118 -109 -108 -53 -52 -49 0
-119 -110 -108 -54 -52 -49 0
-120 -110 -109 -54 -53 -49 0
-115 -112 -111 -52 -51 -50 0
-116 -113 -111 -53 -51 -50 0
-117 -114 -111 -54 -51 -50 0
-118 -113 -112 -53 -52 -50 0
-119 -114 -112 -54 -52 -50 0
-120 -114 -113 -54 -53 -50 0
-118 -116 -115 -53 -52 -51 0
-119 -117 -115 -54 -52 -51 0
-120 -117 -116 -54 -53 -51 0
-120 -119 -118 -54 -53 -52 0
-76 -67 -66 -57 -56 -55 0
-77 -68 -66 -58 -56 -55 0
-78 -69 -66 -59 -56 -55 0
-79 -70 -66 -60 -56 -55 0
-80 -71 -66 -61 -56 -55 0
-81 -72 -66 -62 -56 -55 0
-82 -73 -66 -63 -56 -55 0
-83 -74 -66 -64 -56 -55 0
-84 -75 -66 -65 -56 -55 0
-85 -68 -67 -58 -57 -55 0
-86 -69 -67 -59 -57 -55 0
-87 -70 -67 -60 -57 -55 0
-88 -71 -67 -61 -57 -55 0
-89 -72 -67 -62 -57 -55 0
-90 -73 -67 -63 -57 -55 0
-91 -74 -67 -64 -57 -55 0
-92 -75 -67 -65 -57 -55 0
-93 -69 -68 -59 -58 -55 0
-94 -70 -68 -60 -58 -55 0
-95 -71 -68 -61 -58 -55 0
-96 -72 -68 -62 -58 -55 0
-97 -73 -68 -63 -58 -55 0
-98 -74 -68 -64 -58 -55 0
-99 -75 -68 -65 -58 -55 0
-100 -70 -69 -60 -59 -55 0
-101 -71 -69 -61 -59 -55 0
-102 -72 -69 -62 -59 -55 0
-103 -73 -69 -63 -59 -55 0
-104 -74 -69 -64 -59 -55 0
-105 -75 -69 -65 -59 -55 0
-106 -71 -70 -61 -60 -55 0
-107 -72 -70 -62 -60 -55 0
-108 -73 -70 -63 -60 -55 0
-109 -74 -70 -64 -60 -55 0
-110 -75 -70 -65 -60 -55 0
-111 -72 -71 -62 -61 -55 0
-112 -73 -71 -63 -61 -55 0
-113 -74 -71 -64 -61 -55 0
-114 -75 -71 -65 -61 -55 0
-115 -73 -72 -63 -62 -55 0
-116 -74 -72 -64 -62 -55 0
-117 -75 -72 -65 -62 -55 0
-118 -74 -73 -64 -63 -55 0
-119 -75 -73 -65 -63 -55 0
-120 -75 -74 -65 -64 -55 0
-85 -77 -76 -58 -57 -56 0
-86 -78 -76 -59 -57 -56 0
-87 -79 -76 -60 -57 -56 0
-88 -80 -76 -61 -57 -56 0
-89 -81 -76 -62 -57 -56 0
-90 -82 -76 -63 -57 -56 0
-91 -83 -76 -64 -57 -56 0
-92 -84 -76 -65 -57 -56 0
-93 -78 -77 -59 -58 -56 0
-94 -79 -77 -60 -58 -56 0
-95 -80 -77 -61 -58 -56 0
-96 -81 -77 -62 -58 -56 0
-97 -82 -77 -63 -58 -56 0
-98 -83 -77 -64 -58 -56 0
-99 -84 -77 -65 -58 -56 0
-100 -79 -78 -60 -59 -56 0
-101 -80 -78 -61 -59 -56 0
-102 -81 -78 -62 -59 -56 0
-103 -82 -78 -63 -59 -56 0
-104 -83 -78 -64 -59 -56 0
-105 -84 -78 -65 -59 -56 0
-106 -80 -79 -61 -60 -56 0
-107 -81 -79 -62 -60 -56 0
-108 -82 -79 -63 -60 -56 0
-109 -83 -79 -64 -60 -56 0
-110 -84 -79 -65 -60 -56 0
-111 -81 -80 -62 -61 -56 0
-112 -82 -80 -63 -61 -56 0
-113 -83 -80 -64 -61 -56 0
-114 -84 -80 -65 -61 -56 0
-115 -82 -81 -63 -62 -56 0
-116 -83 -81 -64 -62 -56 0
-117 -84 -81 -65 -62 -56 0
-118 -83 -82 -64 -63 -56 0
-119 -84 -82 -65 -63 -56 0
-120 -84 -83 -65 -64 -56 0
-93 -86 -85 -59 -58 -57 0
-94 -87 -85 -60 -58 -57 0
-95 -88 -85 -61 -58 -57 0
-96 -89 -85 -62 -58 -57 0
-97 -90 -85 -63 -58 -57 0
-98 -91 -85 -64 -58 -57 0
-99 -92 -85 -65 -58 -57 0
-100 -87 -86 -60 -59 -57 0
-101 -88 -86 -61 -59 -57 0
-102 -89 -86 -62 -59 -57 0
-103 -90 -86 -63 -59 -57 0
-104 -91 -86 -64 -59 -57 0
-105 -92 -86 -65 -59 -57 0
-106 -88 -87 -61 -60 -57 0
-107 -89 -87 -62 -60 -57 0
-108 -90 -87 -63 -60 -57 0
-109 -91 -87 -64 -60 -57 0
-110 -92 -87 -65 -60 -57 0
-111 -89 -88 -62 -61 -57 0
-112 -90 -88 -63 -61 -57 0
-113 -91 -88 -64 -61 -57 0
-114 -92 -88 -65 -61 -57 0
-115 -90 -89 -63 -62 -57 0
-116 -91 -89 -64 -62 -57 0
-117 -92 -89 -65 -62 -57 0
-118 -91 -90 -64 -63 -57 0
-119 -92 -90 -65 -63 -57 0
-120 -92 -91 -65 -64 -57 0
-100 -94 -93 -60 -59 -58 0
-101 -95 -93 -61 -59 -58 0
-102 -96 -93 -62 -59 -58 0
-103 -97 -93 -63 -59 -58 0
-104 -98 -93 -64 -59 -58 0
-105 -99 -93 -65 -59 -58 0
-106 -95 -94 -61 -60 -58 0
-107 -96 -94 -62 -60 -58 0
-108 -97 -94 -63 -60 -58 0
-109 -98 -94 -64 -60 -58 0
-110 -99 -94 -65 -60 -58 0
-111 -96 -95 -62 -61 -58 0
-112 -97 -95 -63 -61 -58 0
-113 -98 -95 -64 -61 -58 0
-114 -99 -95 -65 -61 -58 0
-115 -97 -96 -63 -62 -58 0
-116 -98 -96 -64 -62 -58 0
-117 -99 -96 -65 -62 -58 0
-118 -98 -97 -64 -63 -58 0
-119 -99 -97 -65 -63 -58 0
-120 -99 -98 -65 -64 -58 0
-106 -101 -100 -61 -60 -59 0
-107 -102 -100 -62 -60 -59 0
-108 -103 -100 -63 -60 -59 0
-109 -104 -100 -64 -60 -59 0
-110 -105 -100 -65 -60 -59 0
-111 -102 -101 -62 -61 -59 0
-112 -103 -101 -63 -61 -59 0
-113 -104 -101 -64 -61 -59 0
-114 -105 -101 -65 -61 -59 0
-115 -103 -102 -63 -62 -59 0
-116 -104 -102 -64 -62 -59 0
-117 -105 -102 -65 -62 -59 0
-118 -104 -103 -64 -63 -59 0
-119 -105 -103 -65 -63 -59 0
-120 -105 -104 -65 -64 -59 0
-111 -107 -106 -62 -61 -60 0
-112 -108 -106 -63 -61 -60 0
-113 -109 -106 -64 -61 -60 0
-114 -110 -106 -65 -61 -60 0
-115 -108 -107 -63 -62 -60 0
-116 -109 -107 -64 -62 -60 0
-117 -110 -107 -65 -62 -60 0
-118 -109 -108 -64 -63 -60 0
-119 -110 -108 -65 -63 -60 0
-120 -110 -109 -65 -64 -60 0
-115 -112 -111 -63 -62 -61 0
-116 -113 -111 -64 -62 -61 0
-117 -114 -111 -65 -62 -61 0
-118 -113 -112 -64 -63 -61 0
-119 -114 -112 -65 -63 -61 0
-120 -114 -113 -65 -64 -61 0
-118 -116 -115 -64 -63 -62 0
-119 -117 -115 -65 -63 -62 0
-120 -117 -116 -65 -64 -62 0
-120 -119 -118 -65 -64 -63 0
-85 -77 -76 -68 -67 -66 0
-86 -78 -76 -69 -67 -66 0
-87 -79 -76 -70 -67 -66 0
-88 -80 -76 -71 -67 -66 0
-89 -81 -76 -72 -67 -66 0
-90 -82 -76 -73 -67 -66 0
-91 -83 -76 -74 -67 -66 0
-92 -84 -76 -75 -67 -66 0
-93 -78 -77 -69 -68 -66 0
-94 -79 -77 -70 -68 -66 0
-95 -80 -77 -71 -68 -66 0
-96 -81 -77 -72 -68 -66 0
-97 -82 -77 -73 -68 -66 0
-98 -83 -77 -74 -68 -66 0
-99 -84 -77 -75 -68 -66 0
-100 -79 -78 -70 -69 -66 0
-101 -80 -78 -71 -69 -66 0
-102 -81 -78 -72 -69 -66 0
-103 -82 -78 -73 -69 -66 0
-104 -83 -78 -74 -69 -66 0
-105 -84 -78 -75 -69 -66 0
-106 -80 -79 -71 -70 -66 0
-107 -81 -79 -72 -70 -66 0
-108 -82 -79 -73 -70 -66 0
-109 -83 -79 -74 -70 -66 0
-110 -84 -79 -75 -70 -66 0
-111 -81 -80 -72 -71 -66 0
-112 -82 -80 -73 -71 -66 0
-113 -83 -80 -74 -71 -66 0
-114 -84 -80 -75 -71 -66 0
-115 -82 -81 -73 -72 -66 0
-116 -83 -81 -74 -72 -66 0
-117 -84 -81 -75 -72 -66 0
-118 -83 -82 -74 -73 -66 0
-119 -84 -82 -75 -73 -66 0
-120 -84 -83 -75 -74 -66 0
-93 -86 -85 -69 -68 -67 0
-94 -87 -85 -70 -68 -67 0
-95 -88 -85 -71 -68 -67 0
-96 -89 -85 -72 -68 -67 0
-97 -90 -85 -73 -68 -67 0
-98 -91 -85 -74 -68 -67 0
-99 -92 -85 -75 -68 -67 0
-100 -87 -86 -70 -69 -67 0
-101 -88 -86 -71 -69 -67 0
-102 -89 -86 -72 -69 -67 0
-103 -90 -86 -73 -69 -67 0
-104 -91 -86 -74 -69 -67 0
-105 -92 -86 -75 -69 -67 0
-106 -88 -87 -71 -70 -67 0
-107 -89 -87 -72 -70 -67 0
-108 -90 -87 -73 -70 -67 0
-109 -91 -87 -74 -70 -67 0
-110 -92 -87 -75 -70 -67 0
-111 -89 -88 -72 -71 -67 0
-112 -90 -88 -73 -71 -67 0
-113 -91 -88 -74 -71 -67 0
-114 -92 -88 -75 -71 -67 0
-115 -90 -89 -73 -72 -67 0
-116 -91 -89 -74 -72 -67 0
-117 -92 -89 -75 -72 -67 0
-118 -91 -90 -74 -73 -67 0
-119 -92 -90 -75 -73 -67 0
-120 -92 -91 -75 -74 -67 0
-100 -94 -93 -70 -69 -68 0
-101 -95 -93 -71 -69 -68 0
-102 -96 -93 -72 -69 -68 0
-103 -97 -93 -73 -69 -68 0
-104 -98 -93 -74 -69 -68 0
-105 -99 -93 -75 -69 -68 0
-106 -95 -94 -71 -70 -68 0
-107 -96 -94 -72 -70 -68 0
-108 -97 -94 -73 -70 -68 0
-109 -98 -94 -74 -70 -68 0
-110 -99 -94 -75 -70 -68 0
-111 -96 -95 -72 -71 -68 0
-112 -97 -95 -73 -71 -68 0
-113 -98 -95 -74 -71 -68 0
-114 -99 -95 -75 -71 -68 0
-115 -97 -96 -73 -72 -68 0
-116 -98 -96 -74 -72 -68 0
-117 -99 -96 -75 -72 -68 0
-118 -98 -97 -74 -73 -68 0
-119 -99 -97 -75 -73 -68 0
-120 -99 -98 -75 -74 -68 0
-106 -101 -100 -71 -70 -69 0
-107 -102 -100 -72 -70 -69 0
-108 -103 -100 -73 -70 -69 0
-109 -104 -100 -74 -70 -69 0
-110 -105 -100 -75 -70 -69 0
-111 -102 -101 -72 -71 -69 0
-112 -103 -101 -73 -71 -69 0
-113 -104 -101 -74 -71 -69 0
-114 -105 -101 -75 -71 -69 0
-115 -103 -102 -73 -72 -69 0
-116 -104 -102 -74 -72 -69 0
-117 -105 -102 -75 -72 -69 0
-118 -104 -103 -74 -73 -69 0
-119 -105 -103 -75 -73 -69 0
-120 -105 -104 -75 -74 -69 0
-111 -107 -106 -72 -71 -70 0
-112 -108 -106 -73 -71 -70 0
-113 -109 -106 -74 -71 -70 0
-114 -110 -106 -75 -71 -70 0
-115 -108 -107 -73 -72 -70 0
-116 -109 -107 -74 -72 -70 0
-117 -110 -107 -75 -72 -70 0
-118 -109 -108 -74 -73 -70 0
-119 -110 -108 -75 -73 -70 0
-120 -110 -109 -75 -74 -70 0
-115 -112 -111 -73 -72 -71 0
-116 -113 -111 -74 -72 -71 0
-117 -114 -111 -75 -72 -71 0
-118 -113 -112 -74 -73 -71 0
-119 -114 -112 -75 -73 -71 0
-120 -114 -113 -75 -74 -71 0
-118 -116 -115 -74 -73 -72 0
-119 -117 -115 -75 -73 -72 0
-120 -117 -116 -75 -74 -72 0
-120 -119 -118 -75 -74 -73 0
-93 -86 -85 -78 -77 -76 0
-94 -87 -85 -79 -77 -76 0
-95 -88 -85 -80 -77 -76 0
-96 -89 -85 -81 -77 -76 0
-97 -90 -85 -82 -77 -76 0
-98 -91 -85 -83 -77 -76 0
-99 -92 -85 -84 -77 -76 0
-100 -87 -86 -79 -78 -76 0
-101 -88 -86 -80 -78 -76 0
-102 -89 -86 -81 -78 -76 0
-103 -90 -86 -82 -78 -76 0
-104 -91 -86 -83 -78 -76 0
-105 -92 -86 -84 -78 -76 0
-106 -88 -87 -80 -79 -76 0
-107 -89 -87 -81 -79 -76 0
-108 -90 -87 -82 -79 -76 0
-109 -91 -87 -83 -79 -76 0
-110 -92 -87 -84 -79 -76 0
-111 -89 -88 -81 -80 -76 0
-112 -90 -88 -82 -80 -76 0
-113 -91 -88 -83 -80 -76 0
-114 -92 -88 -84 -80 -76 0
-115 -90 -89 -82 -81 -76 0
-116 -91 -89 -83 -81 -76 0
-117 -92 -89 -84 -81 -76 0
-118 -91 -90 -83 -82 -76 0
-119 -92 -90 -84 -82 -76 0
-120 -92 -91 -84 -83 -76 0
-100 -94 -93 -79 -78 -77 0
-101 -95 -93 -80 -78 -77 0
-102 -96 -93 -81 -78 -77 0
-103 -97 -93 -82 -78 -77 0
-104 -98 -93 -83 -78 -77 0
-105 -99 -93 -84 -78 -77 0
-106 -95 -94 -80 -79 -77 0
-107 -96 -94 -81 -79 -77 0
-108 -97 -94 -82 -79 -77 0
-109 -98 -94 -83 -79 -77 0
-110 -99 -94 -84 -79 -77 0
-111 -96 -95 -81 -80 -77 0
-112 -97 -95 -82 -80 -77 0
-113 -98 -95 -83 -80 -77 0
-114 -99 -95 -84 -80 -77 0
-115 -97 -96 -82 -81 -77 0
-116 -98 -96 -83 -81 -77 0
-117 -99 -96 -84 -81 -77 0
-118 -98 -97 -83 -82 -77 0
-119 -99 -97 -84 -82 -77 0
-120 -99 -98 -84 -83 -77 0
-106 -101 -100 -80 -79 -78 0
-107 -102 -100 -81 -79 -78 0
-108 -103 -100 -82 -79 -78 0
-109 -104 -100 -83 -79 -78 0
-110 -105 -100 -84 -79 -78 0
-111 -102 -101 -81 -80 -78 0
-112 -103 -101 -82 -80 -78 0
-113 -104 -101 -83 -80 -78 0
-114 -105 -101 -84 -80 -78 0
-115 -103 -102 -82 -81 -78 0
-116 -104 -102 -83 -81 -78 0
-117 -105 -102 -84 -81 -78 0
-118 -104 -103 -83 -82 -78 0
-119 -105 -103 -84 -82 -78 0
-120 -105 -104 -84 -83 -78 0
-111 -107 -106 -81 -80 -79 0
-112 -108 -106 -82 -80 -79 0
-113 -109 -106 -83 -80 -79 0
-114 -110 -106 -84 -80 -79 0
-115 -108 -107 -82 -81 -79 0
-116 -109 -107 -83 -81 -79 0
-117 -110 -107 -84 -81 -79 0
-118 -109 -108 -83 -82 -79 0
-119 -110 -108 -84 -82 -79 0
-120 -110 -109 -84 -83 -79 0
-115 -112 -111 -82 -81 -80 0
-116 -113 -111 -83 -81 -80 0
-117 -114 -111 -84 -81 -80 0
-118 -113 -112 -83 -82 -80 0
-119 -114 -112 -84 -82 -80 0
-120 -114 -113 -84 -83 -80 0
-118 -116 -115 -83 -82 -81 0
-119 -117 -115 -84 -82 -81 0
-120 -117 -116 -84 -83 -81 0
-120 -119 -118 -84 -83 -82 0
-100 -94 -93 -87 -86 -85 0
-101 -95 -93 -88 -86 -85 0
-102 -96 -93 -89 -86 -85 0
-103 -97 -93 -90 -86 -85 0
-104 -98 -93 -91 -86 -85 0
-105 -99 -93 -92 -86 -85 0
-106 -95 -94 -88 -87 -85 0
-107 -96 -94 -89 -87 -85 0
-108 -97 -94 -90 -87 -85 0
-109 -98 -94 -91 -87 -85 0
-110 -99 -94 -92 -87 -85 0
-111 -96 -95 -89 -88 -85 0
-112 -97 -95 -90 -88 -85 0
-113 -98 -95 -91 -88 -85 0
-114 -99 -95 -92 -88 -85 0
-115 -97 -96 -90 -89 -85 0
-116 -98 -96 -91 -89 -85 0
-117 -99 -96 -92 -89 -85 0
-118 -98 -97 -91 -90 -85 0
-119 -99 -97 -92 -90 -85 0
-120 -99 -98 -92 -91 -85 0
-106 -101 -100 -88 -87 -86 0
-107 -102 -100 -89 -87 -86 0
-108 -103 -100 -90 -87 -86 0
-109 -104 -100 -91 -87 -86 0
-110 -105 -100 -92 -87 -86 0
-111 -102 -101 -89 -88 -86 0
-112 -103 -101 -90 -88 -86 0
-113 -104 -101 -91 -88 -86 0
-114 -105 -101 -92 -88 -86 0
-115 -103 -102 -90 -89 -86 0
-116 -104 -102 -91 -89 -86 0
-117 -105 -102 -92 -89 -86 0
-118 -104 -103 -91 -90 -86 0
-119 -105 -103 -92 -90 -86 0
-120 -105 -104 -92 -91 -86 0
-111 -107 -106 -89 -88 -87 0
-112 -108 -106 -90 -88 -87 0
-113 -109 -106 -91 -88 -87 0
-114 -110 -106 -92 -88 -87 0
-115 -108 -107 -90 -89 -87 0
-116 -109 -107 -91 -89 -87 0
-117 -110 -107 -92 -89 -87 0
-118 -109 -108 -91 -90 -87 0
-119 -110 -108 -92 -90 -87 0
-120 -110 -109 -92 -91 -87 0
-115 -112 -111 -90 -89 -88 0
-116 -113 -111 -91 -89 -88 0
-117 -114 -111 -92 -89 -88 0
-118 -113 -112 -91 -90 -88 0
-119 -114 -112 -92 -90 -88 0
-120 -114 -113 -92 -91 -88 0
-118 -116 -115 -91 -90 -89 0
-119 -117 -115 -92 -90 -89 0
-120 -117 -116 -92 -91 -89 0
-120 -119 -118 -92 -91 -90 0
-106 -101 -100 -95 -94 -93 0
-107 -102 -100 -96 -94 -93 0
-108 -103 -100 -97 -94 -93 0
-109 -104 -100 -98 -94 -93 0
-110 -105 -100 -99 -94 -93 0
-111 -102 -101 -96 -95 -93 0
-112 -103 -101 -97 -95 -93 0
-113 -104 -101 -98 -95 -93 0
-114 -105 -101 -99 -95 -93 0
-115 -103 -102 -97 -96 -93 0
-116 -104 -102 -98 -96 -93 0
-117 -105 -102 -99 -96 -93 0
-118 -104 -103 -98 -97 -93 0
-119 -105 -103 -99 -97 -93 0
-120 -105 -104 -99 -98 -93 0
-111 -107 -106 -96 -95 -94 0
-112 -108 -106 -97 -95 -94 0
-113 -109 -106 -98 -95 -94 0
-114 -110 -106 -99 -95 -94 0
-115 -108 -107 -97 -96 -94 0
-116 -109 -107 -98 -96 -94 0
-117 -110 -107 -99 -96 -94 0
-118 -109 -108 -98 -97 -94 0
-119 -110 -108 -99 -97 -94 0
-120 -110 -109 -99 -98 -94 0
-115 -112 -111 -97 -96 -95 0
-116 -113 -111 -98 -96 -95 0
-117 -114 -111 -99 -96 -95 0
-118 -113 -112 -98 -97 -95 0
-119 -114 -112 -99 -97 -95 0
-120 -114 -113 -99 -98 -95 0
-118 -116 -115 -98 -97 -96 0
-119 -117 -115 -99 -97 -96 0
-120 -117 -116 -99 -98 -96 0
-120 -119 -118 -99 -98 -97 0
-111 -107 -106 -102 -101 -100 0
-112 -108 -106 -103 -101 -100 0
-113 -109 -106 -104 -101 -100 0
-114 -110 -106 -105 -101 -100 0
-115 -108 -107 -103 -102 -100 0
-116 -109 -107 -104 -102 -100 0
-117 -110 -107 -105 -102 -100 0
-118 -109 -108 -104 -103 -100 0
-119 -110 -108 -105 -103 -100 0
-120 -110 -109 -105 -104 -100 0
-115 -112 -111 -103 -102 -101 0
-116 -113 -111 -104 -102 -101 0
-117 -114 -111 -105 -102 -101 0
-118 -113 -112 -104 -103 -101 0
-119 -114 -112 -105 -103 -101 0
-120 -114 -113 -105 -104 -101 0
-118 -116 -115 -104 -103 -102 0
-119 -117 -115 -105 -103 -102 0
-120 -117 -116 -105 -104 -102 0
-120 -119 -118 -105 -104 -103 0
-115 -112 -111 -108 -107 -106 0
-116 -113 -111 -109 -107 -106 0
-117 -114 -111 -110 -107 -106 0
-118 -113 -112 -109 -108 -106 0
-119 -114 -112 -110 -108 -106 0
-120 -114 -113 -110 -109 -106 0
-118 -116 -115 -109 -108 -107 0
-119 -117 -115 -110 -108 -107 0
-120 -117 -116 -110 -109 -107 0
-120 -119 -118 -110 -109 -108 0
-118 -116 -115 -113 -112 -111 0
-119 -117 -115 -114 -112 -111 0
-120 -117 -116 -114 -113 -111 0
-120 -119 -118 -114 -113 -112 0
-120 -119 -118 -117 -116 -115 0
-121 -122 -123 -124 -125 -126 0
-127 -128 -123 -129 -125 -126 0
-130 -131 -123 -132 -125 -126 0
-133 -134 -123 -135 -125 -126 0
-136 -137 -123 -138 -125 -126 0
-139 -140 -123 -141 -125 -126 0
-142 -143 -123 -144 -125 -126 0
-145 -146 -123 -147 -125 -126 0
-148 -149 -123 -150 -125 -126 0
-151 -152 -123 -153 -125 -126 0
-154 -155 -123 -156 -125 -126 0
-157 -158 -123 -159 -125 -126 0
-160 -161 -123 -162 -125 -126 0
-163 -128 -122 -129 -124 -126 0
-164 -131 -122 -132 -124 -126 0
-165 -134 -122 -135 -124 -126 0
-166 -137 -122 -138 -124 -126 0
-167 -140 -122 -141 -124 -126 0
-168 -143 -122 -144 -124 -126 0
-169 -146 -122 -147 -124 -126 0
-170 -149 -122 -150 -124 -126 0
-171 -152 -122 -153 -124 -126 0
-172 -155 -122 -156 -124 -126 0
-173 -158 -122 -159 -124 -126 0
-174 -161 -122 -162 -124 -126 0
-175 -131 -128 -132 -129 -126 0
-176 -134 -128 -135 -129 -126 0
-177 -137 -128 -138 -129 -126 0
-178 -140 -128 -141 -129 -126 0
-179 -143 -128 -144 -129 -126 0
-180 -146 -128 -147 -129 -126 0
-181 -149 -128 -150 -129 -126 0
-182 -152 -128 -153 -129 -126 0
-183 -155 -128 -156 -129 -126 0
-184 -158 -128 -159 -129 -126 0
-185 -161 -128 -162 -129 -126 0
-186 -134 -131 -135 -132 -126 0
-187 -137 -131 -138 -132 -126 0
-188 -140 -131 -141 -132 -126 0
-189 -143 -131 -144 -132 -126 0
-190 -146 -131 -147 -132 -126 0
-191 -149 -131 -150 -132 -126 0
-192 -152 -131 -153 -132 -126 0
-193 -155 -131 -156 -132 -126 0
-194 -158 -131 -159 -132 -126 0
-195 -161 -131 -162 -132 -126 0
-196 -137 -134 -138 -135 -126 0
-197 -140 -134 -141 -135 -126 0
-198 -143 -134 -144 -135 -126 0
-199 -146 -134 -147 -135 -126 0
-200 -149 -134 -150 -135 -126 0
-201 -152 -134 -153 -135 -126 0
-202 -155 -134 -156 -135 -126 0
-203 -158 -134 -159 -135 -126 0
-204 -161 -134 -162 -135 -126 0
-205 -140 -137 -141 -138 -126 0
-206 -143 -137 -144 -138 -126 0
-207 -146 -137 -147 -138 -126 0
-208 -149 -137 -150 -138 -126 0
-209 -152 -137 -153 -138 -126 0
-210 -155 -137 -156 -138 -126 0
-211 -158 -137 -159 -138 -126 0
-212 -161 -137 -162 -138 -126 0
-213 -143 -140 -144 -141 -126 0
-214 -146 -140 -147 -141 -126 0
-215 -149 -140 -150 -141 -126 0
-216 -152 -140 -153 -141 -126 0
-217 -155 -140 -156 -141 -126 0
-218 -158 -140 -159 -141 -126 0
-219 -161 -140 -162 -141 -126 0
-220 -146 -143 -147 -144 -126 0
-221 -149 -143 -150 -144 -126 0
-222 -152 -143 -153 -144 -126 0
-223 -155 -143 -156 -144 -126 0
-224 -158 -143 -159 -144 -126 0
-225 -161 -143 -162 -144 -126 0
-226 -149 -146 -150 -147 -126 0
-227 -152 -146 -153 -147 -126 0
-228 -155 -146 -156 -147 -126 0
-229 -158 -146 -159 -147 -126 0
-230 -161 -146 -162 -147 -126 0
-231 -152 -149 -153 -150 -126 0
-232 -155 -149 -156 -150 -126 0
-233 -158 -149 -159 -150 -126 0
-234 -161 -149 -162 -150 -126 0
-235 -155 -152 -156 -153 -126 0
-236 -158 -152 -159 -153 -126 0
-237 -161 -152 -162 -153 -126 0
-238 -158 -155 -159 -156 -126 0
-239 -161 -155 -162 -156 -126 0
-240 -161 -158 -162 -159 -126 0
-163 -127 -121 -129 -124 -125 0
-164 -130 -121 -132 -124 -125 0
-165 -133 -121 -135 -124 -125 0
-166 -136 -121 -138 -124 -125 0
-167 -139 -121 -141 -124 -125 0
-168 -142 -121 -144 -124 -125 0
-169 -145 -121 -147 -124 -125 0
-170 -148 -121 -150 -124 -125 0
-171 -151 -121 -153 -124 -125 0
-172 -154 -121 -156 -124 -125 0
-173 -157 -121 -159 -124 -125 0
-174 -160 -121 -162 -124 -125 0
-175 -130 -127 -132 -129 -125 0
-176 -133 -127 -135 -129 -125 0
-177 -136 -127 -138 -129 -125 0
-178 -139 -127 -141 -129 -125 0
-179 -142 -127 -144 -129 -125 0
-180 -145 -127 -147 -129 -125 0
-181 -148 -127 -150 -129 -125 0
-182 -151 -127 -153 -129 -125 0
-183 -154 -127 -156 -129 -125 0
-184 -157 -127 -159 -129 -125 0
-185 -160 -127 -162 -129 -125 0
-186 -133 -130 -135 -132 -125 0
-187 -136 -130 -138 -132 -125 0
-188 -139 -130 -141 -132 -125 0
-189 -142 -130 -144 -132 -125 0
-190 -145 -130 -147 -132 -125 0
-191 -148 -130 -150 -132 -125 0
-192 -151 -130 -153 -132 -125 0
-193 -154 -130 -156 -132 -125 0
-194 -157 -130 -159 -132 -125 0
-195 -160 -130 -162 -132 -125 0
-196 -136 -133 -138 -135 -125 0
-197 -139 -133 -141 -135 -125 0
-198 -142 -133 -144 -135 -125 0
-199 -145 -133 -147 -135 -125 0
-200 -148 -133 -150 -135 -125 0
-201 -151 -133 -153 -135 -125 0
-202 -154 -133 -156 -135 -125 0
-203 -157 -133 -159 -135 -125 0
-204 -160 -133 -162 -135 -125 0
-205 -139 -136 -141 -138 -125 0
-206 -142 -136 -144 -138 -125 0
-207 -145 -136 -147 -138 -125 0
-208 -148 -136 -150 -138 -125 0
-209 -151 -136 -153 -138 -125 0
-210 -154 -136 -156 -138 -125 0
-211 -157 -136 -159 -138 -125 0
-212 -160 -136 -162 -138 -125 0
-213 -142 -139 -144 -141 -125 0
-214 -145 -139 -147 -141 -125 0
-215 -148 -139 -150 -141 -125 0
-216 -151 -139 -153 -141 -125 0
-217 -154 -139 -156 -141 -125 0
-218 -157 -139 -159 -141 -125 0
-219 -160 -139 -162 -141 -125 0
-220 -145 -142 -147 -144 -125 0
-221 -148 -142 -150 -144 -125 0
-222 -151 -142 -153 -144 -125 0
-223 -154 -142 -156 -144 -125 0
-224 -157 -142 -159 -144 -125 0
-225 -160 -142 -162 -144 -125 0
-226 -148 -145 -150 -147 -125 0
-227 -151 -145 -153 -147 -125 0
-228 -154 -145 -156 -147 -125 0
-229 -157 -145 -159 -147 -125 0
-230 -160 -145 -162 -147 -125 0
-231 -151 -148 -153 -150 -125 0
-232 -154 -148 -156 -150 -125 0
-233 -157 -148 -159 -150 -125 0
-234 -160 -148 -162 -150 -125 0
-235 -154 -151 -156 -153 -125 0
-236 -157 -151 -159 -153 -125 0
-237 -160 -151 -162 -153 -125 0
-238 -157 -154 -159 -156 -125 0
-239 -160 -154 -162 -156 -125 0
-240 -160 -157 -162 -159 -125 0
-175 -164 -163 -132 -129 -124 0
-176 -165 -163 -135 -129 -124 0
-177 -166 -163 -138 -129 -124 0
-178 -167 -163 -141 -129 -124 0
-179 -168 -163 -144 -129 -124 0
-180 -169 -163 -147 -129 -124 0
-181 -170 -163 -150 -129 -124 0
-182 -171 -163 -153 -129 -124 0
-183 -172 -163 -156 -129 -124 0
-184 -173 -163 -159 -129 -124 0
-185 -174 -163 -162 -129 -124 0
-186 -165 -164 -135 -132 -124 0
-187 -166 -164 -138 -132 -124 0
-188 -167 -164 -141 -132 -124 0
-189 -168 -164 -144 -132 -124 0
-190 -169 -164 -147 -132 -124 0
-191 -170 -164 -150 -132 -124 0
-192 -171 -164 -153 -132 -124 0
-193 -172 -164 -156 -132 -124 0
-194 -173 -164 -159 -132 -124 0
-195 -174 -164 -162 -132 -124 0
-196 -166 -165 -138 -135 -124 0
-197 -167 -165 -141 -135 -124 0
-198 -168 -165 -144 -135 -124 0
-199 -169 -165 -147 -135 -124 0
-200 -170 -165 -150 -135 -124 0
-201 -171 -165 -153 -135 -124 0
-202 -172 -165 -156 -135 -124 0
-203 -173 -165 -159 -135 -124 0
-204 -174 -165 -162 -135 -124 0
-205 -167 -166 -141 -138 -124 0
-206 -168 -166 -144 -138 -124 0
-207 -169 -166 -147 -138 -124 0
-208 -170 -166 -150 -138 -124 0
-209 -171 -166 -153 -138 -124 0
-210 -172 -166 -156 -138 -124 0
-211 -173 -166 -159 -138 -124 0
-212 -174 -166 -162 -138 -124 0
-213 -168 -167 -144 -141 -124 0
-214 -169 -167 -147 -141 -124 0
-215 -170 -167 -150 -141 -124 0
-216 -171 -167 -153 -141 -124 0
-217 -172 -167 -156 -141 -124 0
-218 -173 -167 -159 -141 -124 0
-219 -174 -167 -162 -141 -124 0
-220 -169 -168 -147 -144 -124 0
-221 -170 -168 -150 -144 -124 0
-222 -171 -168 -153 -144 -124 0
-223 -172 -168 -156 -144 -124 0
-224 -173 -168 -159 -144 -124 0
-225 -174 -168 -162 -144 -124 0
-226 -170 -169 -150 -147 -124 0
-227 -171 -169 -153 -147 -124 0
-228 -172 -169 -156 -147 -124 0
-229 -173 -169 -159 -147 -124 0
-230 -174 -169 -162 -147 -124 0
-231 -171 -170 -153 -150 -124 0
-232 -172 -170 -156 -150 -124 0
-233 -173 -170 -159 -150 -124 0
-234 -174 -170 -162 -150 -124 0
-235 -172 -171 -156 -153 -124 0
-236 -173 -171 -159 -153 -124 0
-237 -174 -171 -162 -153 -124 0
-238 -173 -172 -159 -156 -124 0
-239 -174 -172 -162 -156 -124 0
-240 -174 -173 -162 -159 -124 0
-186 -176 -175 -135 -132 -129 0
-187 -177 -175 -138 -132 -129 0
-188 -178 -175 -141 -132 -129 0
-189 -179 -175 -144 -132 -129 0
-190 -180 -175 -147 -132 -129 0
-191 -181 -175 -150 -132 -129 0
-192 -182 -175 -153 -132 -129 0
-193 -183 -175 -156 -132 -129 0
-194 -184 -175 -159 -132 -129 0
-195 -185 -175 -162 -132 -129 0
-196 -177 -176 -138 -135 -129 0
-197 -178 -176 -141 -135 -129 0
-198 -179 -176 -144 -135 -129 0
-199 -180 -176 -147 -135 -129 0
-200 -181 -176 -150 -135 -129 0
-201 -182 -176 -153 -135 -129 0
-202 -183 -176 -156 -135 -129 0
-203 -184 -176 -159 -135 -129 0
-204 -185 -176 -162 -135 -129 0
-205 -178 -177 -141 -138 -129 0
-206 -179 -177 -144 -138 -129 0
-207 -180 -177 -147 -138 -129 0
-208 -181 -177 -150 -138 -129 0
-209 -182 -177 -153 -138 -129 0
-210 -183 -177 -156 -138 -129 0
-211 -184 -177 -159 -138 -129 0
-212 -185 -177 -162 -138 -129 0
-213 -179 -178 -144 -141 -129 0
-214 -180 -178 -147 -141 -129 0
-215 -181 -178 -150 -141 -129 0
-216 -182 -178 -153 -141 -129 0
-217 -183 -178 -156 -141 -129 0
-218 -184 -178 -159 -141 -129 0
-219 -185 -178 -162 -141 -129 0
-220 -180 -179 -147 -144 -129 0
-221 -181 -179 -150 -144 -129 0
-222 -182 -179 -153 -144 -129 0
-223 -183 -179 -156 -144 -129 0
-224 -184 -179 -159 -144 -129 0
-225 -185 -179 -162 -144 -129 0
-226 -181 -180 -150 -147 -129 0
-227 -182 -180 -153 -147 -129 0
-228 -183 -180 -156 -147 -129 0
-229 -184 -180 -159 -147 -129 0
-230 -185 -180 -162 -147 -129 0
-231 -182 -181 -153 -150 -129 0
-232 -183 -181 -156 -150 -129 0
-233 -184 -181 -159 -150 -129 0
-234 -185 -181 -162 -150 -129 0
-235 -183 -182 -156 -153 -129 0
-236 -184 -182 -159 -153 -129 0
-237 -185 -182 -162 -153 -129 0
-238 -184 -183 -159 -156 -129 0
-239 -185 -183 -162 -156 -129 0
-240 -185 -184 -162 -159 -129 0
-196 -187 -186 -138 -135 -132 0
-197 -188 -186 -141 -135 -132 0
-198 -189 -186 -144 -135 -132 0
-199 -190 -186 -147 -135 -132 0
-200 -191 -186 -150 -135 -132 0
-201 -192 -186 -153 -135 -132 0
-202 -193 -186 -156 -135 -132 0
-203 -194 -186 -159 -135 -132 0
-204 -195 -186 -162 -135 -132 0
-205 -188 -187 -141 -138 -132 0
-206 -189 -187 -144 -138 -132 0
-207 -190 -187 -147 -138 -132 0
-208 -191 -187 -150 -138 -132 0
-209 -192 -187 -153 -138 -132 0
-210 -193 -187 -156 -138 -132 0
-211 -194 -187 -159 -138 -132 0
-212 -195 -187 -162 -138 -132 0
-213 -189 -188 -144 -141 -132 0
-214 -190 -188 -147 -141 -132 0
-215 -191 -188 -150 -141 -132 0
-216 -192 -188 -153 -141 -132 0
-217 -193 -188 -156 -141 -132 0
-218 -194 -188 -159 -141 -132 0
-219 -195 -188 -162 -141 -132 0
-220 -190 -189 -147 -144 -132 0
-221 -191 -189 -150 -144 -132 0
-222 -192 -189 -153 -144 -132 0
-223 -193 -189 -156 -144 -132 0
-224 -194 -189 -159 -144 -132 0
-225 -195 -189 -162 -144 -132 0
-226 -191 -190 -150 -147 -132 0
-227 -192 -190 -153 -147 -132 0
-228 -193 -190 -156 -147 -132 0
-229 -194 -190 -159 -147 -132 0
-230 -195 -190 -162 -147 -132 0
-231 -192 -191 -153 -150 -132 0
-232 -193 -191 -156 -150 -132 0
-233 -194 -191 -159 -150 -132 0
-234 -195 -191 -162 -150 -132 0
-235 -193 -192 -156 -153 -132 0
-236 -194 -192 -159 -153 -132 0
-237 -195 -192 -162 -153 -132 0
-238 -194 -193 -159 -156 -132 0
-239 -195 -193 -162 -156 -132 0
-240 -195 -194 -162 -159 -132 0
-205 -197 -196 -141 -138 -135 0
-206 -198 -196 -144 -138 -135 0
-207 -199 -196 -147 -138 -135 0
-208 -200 -196 -150 -138 -135 0
-209 -201 -196 -153 -138 -135 0
-210 -202 -196 -156 -138 -135 0
-211 -203 -196 -159 -138 -135 0
-212 -204 -196 -162 -138 -135 0
-213 -198 -197 -144 -141 -135 0
-214 -199 -197 -147 -141 -135 0
-215 -200 -197 -150 -141 -135 0
-216 -201 -197 -153 -141 -135 0
-217 -202 -197 -156 -141 -135 0
-218 -203 -197 -159 -141 -135 0
-219 -204 -197 -162 -141 -135 0
-220 -199 -198 -147 -144 -135 0
-221 -200 -198 -150 -144 -135 0
-222 -201 -198 -153 -144 -135 0
-223 -202 -198 -156 -144 -135 0
-224 -203 -198 -159 -144 -135 0
-225 -204 -198 -162 -144 -135 0
-226 -200 -199 -150 -147 -135 0
-227 -201 -199 -153 -147 -135 0
-228 -202 -199 -156 -147 -135 0
-229 -203 -199 -159 -147 -135 0
-230 -204 -199 -162 -147 -135 0
-231 -201 -200 -153 -150 -135 0
-232 -202 -200 -156 -150 -135 0
-233 -203 -200 -159 -150 -135 0
-234 -204 -200 -162 -150 -135 0
-235 -202 -201 -156 -153 -135 0
-236 -203 -201 -159 -153 -135 0
-237 -204 -201 -162 -153 -135 0
-238 -203 -202 -159 -156 -135 0
-239 -204 -202 -162 -156 -135 0
-240 -204 -203 -162 -159 -135 0
-213 -206 -205 -144 -141 -138 0
-214 -207 -205 -147 -141 -138 0
-215 -208 -205 -150 -141 -138 0
-216 -209 -205 -153 -141 -138 0
-217 -210 -205 -156 -141 -138 0
-218 -211 -205 -159 -141 -138 0
-219 -212 -205 -162 -141 -138 0
-220 -207 -206 -147 -144 -138 0
-221 -208 -206 -150 -144 -138 0
-222 -209 -206 -153 -144 -138 0
-223 -210 -206 -156 -144 -138 0
-224 -211 -206 -159 -144 -138 0
-225 -212 -206 -162 -144 -138 0
-226 -208 -207 -150 -147 -138 0
-227 -209 -207 -153 -147 -138 0
-228 -210 -207 -156 -147 -138 0
-229 -211 -207 -159 -147 -138 0
-230 -212 -207 -162 -147 -138 0
-231 -209 -208 -153 -150 -138 0
-232 -210 -208 -156 -150 -138 0
-233 -211 -208 -159 -150 -138 0
-234 -212 -208 -162 -150 -138 0
-235 -210 -209 -156 -153 -138 0
-236 -211 -209 -159 -153 -138 0
-237 -212 -209 -162 -153 -138 0
-238 -211 -210 -159 -156 -138 0
-239 -212 -210 -162 -156 -138 0
-240 -212 -211 -162 -159 -138 0
-220 -214 -213 -147 -144 -141 0
-221 -215 -213 -150 -144 -141 0
-222 -216 -213 -153 -144 -141 0
-223 -217 -213 -156 -144 -141 0
-224 -218 -213 -159 -144 -141 0
-225 -219 -213 -162 -144 -141 0
-226 -215 -214 -150 -147 -141 0
-227 -216 -214 -153 -147 -141 0
-228 -217 -214 -156 -147 -141 0
-229 -218 -214 -159 -147 -141 0
-230 -219 -214 -162 -147 -141 0
-231 -216 -215 -153 -150 -141 0
-232 -217 -215 -156 -150 -141 0
-233 -218 -215 -159 -150 -141 0
-234 -219 -215 -162 -150 -141 0
-235 -217 -216 -156 -153 -141 0
-236 -218 -216 -159 -153 -141 0
-237 -219 -216 -162 -153 -141 0
-238 -218 -217 -159 -156 -141 0
-239 -219 -217 -162 -156 -141 0
-240 -219 -218 -162 -159 -141 0
-226 -221 -220 -150 -147 -144 0
-227 -222 -220 -153 -147 -144 0
-228 -223 -220 -156 -147 -144 0
-229 -224 -220 -159 -147 -144 0
-230 -225 -220 -162 -147 -144 0
-231 -222 -221 -153 -150 -144 0
-232 -223 -221 -156 -150 -144 0
-233 -224 -221 -159 -150 -144 0
-234 -225 -221 -162 -150 -144 0
-235 -223 -222 -156 -153 -144 0
-236 -224 -222 -159 -153 -144 0
-237 -225 -222 -162 -153 -144 0
-238 -224 -223 -159 -156 -144 0
-239 -225 -223 -162 -156 -144 0
-240 -225 -224 -162 -159 -144 0
-231 -227 -226 -153 -150 -147 0
-232 -228 -226 -156 -150 -147 0
-233 -229 -226 -159 -150 -147 0
-234 -230 -226 -162 -150 -147 0
-235 -228 -227 -156 -153 -147 0
-236 -229 -227 -159 -153 -147 0
-237 -230 -227 -162 -153 -147 0
-238 -229 -228 -159 -156 -147 0
-239 -230 -228 -162 -156 -147 0
-240 -230 -229 -162 -159 -147 0
-235 -232 -231 -156 -153 -150 0
-236 -233 -231 -159 -153 -150 0
-237 -234 -231 -162 -153 -150 0
-238 -233 -232 -159 -156 -150 0
-239 -234 -232 -162 -156 -150 0
-240 -234 -233 -162 -159 -150 0
-238 -236 -235 -159 -156 -153 0
-239 -237 -235 -162 -156 -153 0
-240 -237 -236 -162 -159 -153 0
-240 -239 -238 -162 -159 -156 0
-163 -127 -121 -128 -122 -123 0
-164 -130 -121 -131 -122 -123 0
-165 -133 -121 -134 -122 -123 0
-166 -136 -121 -137 -122 -123 0
-167 -139 -121 -140 -122 -123 0
-168 -142 -121 -143 -122 -123 0
-169 -145 -121 -146 -122 -123 0
-170 -148 -121 -149 -122 -123 0
-171 -151 -121 -152 -122 -123 0
-172 -154 -121 -155 -122 -123 0
-173 -157 -121 -158 -122 -123 0
-174 -160 -121 -161 -122 -123 0
-175 -130 -127 -131 -128 -123 0
-176 -133 -127 -134 -128 -123 0
-177 -136 -127 -137 -128 -123 0
-178 -139 -127 -140 -128 -123 0
-179 -142 -127 -143 -128 -123 0
-180 -145 -127 -146 -128 -123 0
-181 -148 -127 -149 -128 -123 0
-182 -151 -127 -152 -128 -123 0
-183 -154 -127 -155 -128 -123 0
-184 -157 -127 -158 -128 -123 0
-185 -160 -127 -161 -128 -123 0
-186 -133 -130 -134 -131 -123 0
-187 -136 -130 -137 -131 -123 0
-188 -139 -130 -140 -131 -123 0
-189 -142 -130 -143 -131 -123 0
-190 -145 -130 -146 -131 -123 0
-191 -148 -130 -149 -131 -123 0
-192 -151 -130 -152 -131 -123 0
-193 -154 -130 -155 -131 -123 0
-194 -157 -130 -158 -131 -123 0
-195 -160 -130 -161 -131 -123 0
-196 -136 -133 -137 -134 -123 0
-197 -139 -133 -140 -134 -123 0
-198 -142 -133 -143 -134 -123 0
-199 -145 -133 -146 -134 -123 0
-200 -148 -133 -149 -134 -123 0
-201 -151 -133 -152 -134 -123 0
-202 -154 -133 -155 -134 -123 0
-203 -157 -133 -158 -134 -123 0
-204 -160 -133 -161 -134 -123 0
-205 -139 -136 -140 -137 -123 0
-206 -142 -136 -143 -137 -123 0
-207 -145 -136 -146 -137 -123 0
-208 -148 -136 -149 -137 -123 0
-209 -151 -136 -152 -137 -123 0
-210 -154 -136 -155 -137 -123 0
-211 -157 -136 -158 -137 -123 0
-212 -160 -136 -161 -137 -123 0
-213 -142 -139 -143 -140 -123 0
-214 -145 -139 -146 -140 -123 0
-215 -148 -139 -149 -140 -123 0
-216 -151 -139 -152 -140 -123 0
-217 -154 -139 -155 -140 -123 0
-218 -157 -139 -158 -140 -123 0
-219 -160 -139 -161 -140 -123 0
-220 -145 -142 -146 -143 -123 0
-221 -148 -142 -149 -143 -123 0
-222 -151 -142 -152 -143 -123 0
-223 -154 -142 -155 -143 -123 0
-224 -157 -142 -158 -143 -123 0
-225 -160 -142 -161 -143 -123 0
-226 -148 -145 -149 -146 -123 0
-227 -151 -145 -152 -146 -123 0
-228 -154 -145 -155 -146 -123 0
-229 -157 -145 -158 -146 -123 0
-230 -160 -145 -161 -146 -123 0
-231 -151 -148 -152 -149 -123 0
-232 -154 -148 -155 -149 -123 0
-233 -157 -148 -158 -149 -123 0
-234 -160 -148 -161 -149 -123 0
-235 -154 -151 -155 -152 -123 0
-236 -157 -151 -158 -152 -123 0
-237 -160 -151 -161 -152 -123 0
-238 -157 -154 -158 -155 -123 0
-239 -160 -154 -161 -155 -123 0
-240 -160 -157 -161 -158 -123 0
-175 -164 -163 -131 -128 -122 0
-176 -165 -163 -134 -128 -122 0
-177 -166 -163 -137 -128 -122 0
-178 -167 -163 -140 -128 -122 0
-179 -168 -163 -143 -128 -122 0
-180 -169 -163 -146 -128 -122 0
-181 -170 -163 -149 -128 -122 0
-182 -171 -163 -152 -128 -122 0
-183 -172 -163 -155 -128 -122 0
-184 -173 -163 -158 -128 -122 0
-185 -174 -163 -161 -128 -122 0
-186 -165 -164 -134 -131 -122 0
-187 -166 -164 -137 -131 -122 0
-188 -167 -164 -140 -131 -122 0
-189 -168 -164 -143 -131 -122 0
-190 -169 -164 -146 -131 -122 0
-191 -170 -164 -149 -131 -122 0
-192 -171 -164 -152 -131 -122 0
-193 -172 -164 -155 -131 -122 0
-194 -173 -164 -158 -131 -122 0
-195 -174 -164 -161 -131 -122 0
-196 -166 -165 -137 -134 -122 0
-197 -167 -165 -140 -134 -122 0
-198 -168 -165 -143 -134 -122 0
-199 -169 -165 -146 -134 -122 0
-200 -170 -165 -149 -134 -122 0
-201 -171 -165 -152 -134 -122 0
-202 -172 -165 -155 -134 -122 0
-203 -173 -165 -158 -134 -122 0
-204 -174 -165 -161 -134 -122 0
-205 -167 -166 -140 -137 -122 0
-206 -168 -166 -143 -137 -122 0
-207 -169 -166 -146 -137 -122 0
-208 -170 -166 -149 -137 -122 0
-209 -171 -166 -152 -137 -122 0
-210 -172 -166 -155 -137 -122 0
-211 -173 -166 -158 -137 -122 0
-212 -174 -166 -161 -137 -122 0
-213 -168 -167 -143 -140 -122 0
-214 -169 -167 -146 -140 -122 0
-215 -170 -167 -149 -140 -122 0
-216 -171 -167 -152 -140 -122 0
-217 -172 -167 -155 -140 -122 0
-218 -173 -167 -158 -140 -122 0
-219 -174 -167 -161 -140 -122 0
-220 -169 -168 -146 -143 -122 0
-221 -170 -168 -149 -143 -122 0
-222 -171 -168 -152 -143 -122 0
-223 -172 -168 -155 -143 -122 0
-224 -173 -168 -158 -143 -122 0
-225 -174 -168 -161 -143 -122 0
-226 -170 -169 -149 -146 -122 0
-227 -171 -169 -152 -146 -122 0
-228 -172 -169 -155 -146 -122 0
-229 -173 -169 -158 -146 -122 0
-230 -174 -169 -161 -146 -122 0
-231 -171 -170 -152 -149 -122 0
-232 -172 -170 -155 -149 -122 0
-233 -173 -170 -158 -149 -122 0
-234 -174 -170 -161 -149 -122 0
-235 -172 -171 -155 -152 -122 0
-236 -173 -171 -158 -152 -122 0
-237 -174 -171 -161 -152 -122 0
-238 -173 -172 -158 -155 -122 0
-239 -174 -172 -161 -155 -122 0
-240 -174 -173 -161 -158 -122 0
-186 -176 -175 -134 -131 -128 0
-187 -177 -175 -137 -131 -128 0
-188 -178 -175 -140 -131 -128 0
-189 -179 -175 -143 -131 -128 0
-190 -180 -175 -146 -131 -128 0
-191 -181 -175 -149 -131 -128 0
-192 -182 -175 -152 -131 -128 0
-193 -183 -175 -155 -131 -128 0
-194 -184 -175 -158 -131 -128 0
-195 -185 -175 -161 -131 -128 0
-196 -177 -176 -137 -134 -128 0
-197 -178 -176 -140 -134 -128 0
-198 -179 -176 -143 -134 -128 0
-199 -180 -176 -146 -134 -128 0
-200 -181 -176 -149 -134 -128 0
-201 -182 -176 -152 -134 -128 0
-202 -183 -176 -155 -134 -128 0
-203 -184 -176 -158 -134 -128 0
-204 -185 -176 -161 -134 -128 0
-205 -178 -177 -140 -137 -128 0
-206 -179 -177 -143 -137 -128 0
-207 -180 -177 -146 -137 -128 0
-208 -181 -177 -149 -137 -128 0
-209 -182 -177 -152 -137 -128 0
-210 -183 -177 -155 -137 -128 0
-211 -184 -177 -158 -137 -128 0
-212 -185 -177 -161 -137 -128 0
-213 -179 -178 -143 -140 -128 0
-214 -180 -178 -146 -140 -128 0
-215 -181 -178 -149 -140 -128 0
-216 -182 -178 -152 -140 -128 0
-217 -183 -178 -155 -140 -128 0
-218 -184 -178 -158 -140 -128 0
-219 -185 -178 -161 -140 -128 0
-220 -180 -179 -146 -143 -128 0
-221 -181 -179 -149 -143 -128 0
-222 -182 -179 -152 -143 -128 0
-223 -183 -179 -155 -143 -128 0
-224 -184 -179 -158 -143 -128 0
-225 -185 -179 -161 -143 -128 0
-226 -181 -180 -149 -146 -128 0
-227 -182 -180 -152 -146 -128 0
-228 -183 -180 -155 -146 -128 0
-229 -184 -180 -158 -146 -128 0
-230 -185 -180 -161 -146 -128 0
-231 -182 -181 -152 -149 -128 0
-232 -183 -181 -155 -149 -128 0
-233 -184 -181 -158 -149 -128 0
-234 -185 -181 -161 -149 -128 0
-235 -183 -182 -155 -152 -128 0
-236 -184 -182 -158 -152 -128 0
-237 -185 -182 -161 -152 -128 0
-238 -184 -183 -158 -155 -128 0
-239 -185 -183 -161 -155 -128 0
-240 -185 -184 -161 -158 -128 0
-196 -187 -186 -137 -134 -131 0
-197 -188 -186 -140 -134 -131 0
-198 -189 -186 -143 -134 -131 0
-199 -190 -186 -146 -134 -131 0
-200 -191 -186 -149 -134 -131 0
-201 -192 -186 -152 -134 -131 0
-202 -193 -186 -155 -134 -131 0
-203 -194 -186 -158 -134 -131 0
-204 -195 -186 -161 -134 -131 0
-205 -188 -187 -140 -137 -131 0
-206 -189 -187 -143 -137 -131 0
-207 -190 -187 -146 -137 -131 0
-208 -191 -187 -149 -137 -131 0
-209 -192 -187 -152 -137 -131 0
-210 -193 -187 -155 -137 -131 0
-211 -194 -187 -158 -137 -131 0
-212 -195 -187 -161 -137 -131 0
-213 -189 -188 -143 -140 -131 0
-214 -190 -188 -146 -140 -131 0
-215 -191 -188 -149 -140 -131 0
-216 -192 -188 -152 -140 -131 0
-217 -193 -188 -155 -140 -131 0
-218 -194 -188 -158 -140 -131 0
-219 -195 -188 -161 -140 -131 0
-220 -190 -189 -146 -143 -131 0
-221 -191 -189 -149 -143 -131 0
-222 -192 -189 -152 -143 -131 0
-223 -193 -189 -155 -143 -131 0
-224 -194 -189 -158 -143 -131 0
-225 -195 -189 -161 -143 -131 0
-226 -191 -190 -149 -146 -131 0
-227 -192 -190 -152 -146 -131 0
-228 -193 -190 -155 -146 -131 0
-229 -194 -190 -158 -146 -131 0
-230 -195 -190 -161 -146 -131 0
-231 -192 -191 -152 -149 -131 0
-232 -193 -191 -155 -149 -131 0
-233 -194 -191 -158 -149 -131 0
-234 -195 -191 -161 -149 -131 0
-235 -193 -192 -155 -152 -131 0
-236 -194 -192 -158 -152 -131 0
-237 -195 -192 -161 -152 -131 0
-238 -194 -193 -158 -155 -131 0
-239 -195 -193 -161 -155 -131 0
-240 -195 -194 -161 -158 -131 0
-205 -197 -196 -140 -137 -134 0
-206 -198 -196 -143 -137 -134 0
-207 -199 -196 -146 -137 -134 0
-208 -200 -196 -149 -137 -134 0
-209 -201 -196 -152 -137 -134 0
-210 -202 -196 -155 -137 -134 0
-211 -203 -196 -158 -137 -134 0
-212 -204 -196 -161 -137 -134 0
-213 -198 -197 -143 -140 -134 0
-214 -199 -197 -146 -140 -134 0
-215 -200 -197 -149 -140 -134 0
-216 -201 -197 -152 -140 -134 0
-217 -202 -197 -155 -140 -134 0
-218 -203 -197 -158 -140 -134 0
-219 -204 -197 -161 -140 -134 0
-220 -199 -198 -146 -143 -134 0
-221 -200 -198 -149 -143 -134 0
-222 -201 -198 -152 -143 -134 0
-223 -202 -198 -155 -143 -134 0
-224 -203 -198 -158 -143 -134 0
-225 -204 -198 -161 -143 -134 0
-226 -200 -199 -149 -146 -134 0
-227 -201 -199 -152 -146 -134 0
-228 -202 -199 -155 -146 -134 0
-229 -203 -199 -158 -146 -134 0
-230 -204 -199 -161 -146 -134 0
-231 -201 -200 -152 -149 -134 0
-232 -202 -200 -155 -149 -134 0
-233 -203 -200 -158 -149 -134 0
-234 -204 -200 -161 -149 -134 0
-235 -202 -201 -155 -152 -134 0
-236 -203 -201 -158 -152 -134 0
-237 -204 -201 -161 -152 -134 0
-238 -203 -202 -158 -155 -134 0
-239 -204 -202 -161 -155 -134 0
-240 -204 -203 -161 -158 -134 0
-213 -206 -205 -143 -140 -137 0
-214 -207 -205 -146 -140 -137 0
-215 -208 -205 -149 -140 -137 0
-216 -209 -205 -152 -140 -137 0
-217 -210 -205 -155 -140 -137 0
-218 -211 -205 -158 -140 -137 0
-219 -212 -205 -161 -140 -137 0
-220 -207 -206 -146 -143 -137 0
-221 -208 -206 -149 -143 -137 0
-222 -209 -206 -152 -143 -137 0
-223 -210 -206 -155 -143 -137 0
-224 -211 -206 -158 -143 -137 0
-225 -212 -206 -161 -143 -137 0
-226 -208 -207 -149 -146 -137 0
-227 -209 -207 -152 -146 -137 0
-228 -210 -207 -155 -146 -137 0
-229 -211 -207 -158 -146 -137 0
-230 -212 -207 -161 -146 -137 0
-231 -209 -208 -152 -149 -137 0
-232 -210 -208 -155 -149 -137 0
-233 -211 -208 -158 -149 -137 0
-234 -212 -208 -161 -149 -137 0
-235 -210 -209 -155 -152 -137 0
-236 -211 -209 -158 -152 -137 0
-237 -212 -209 -161 -152 -137 0
-238 -211 -210 -158 -155 -137 0
-239 -212 -210 -161 -155 -137 0
-240 -212 -211 -161 -158 -137 0
-220 -214 -213 -146 -143 -140 0
-221 -215 -213 -149 -143 -140 0
-222 -216 -213 -152 -143 -140 0
-223 -217 -213 -155 -143 -140 0
-224 -218 -213 -158 -143 -140 0
-225 -219 -213 -161 -143 -140 0
-226 -215 -214 -149 -146 -140 0
-227 -216 -214 -152 -146 -140 0
-228 -217 -214 -155 -146 -140 0
-229 -218 -214 -158 -146 -140 0
-230 -219 -214 -161 -146 -140 0
-231 -216 -215 -152 -149 -140 0
-232 -217 -215 -155 -149 -140 0
-233 -218 -215 -158 -149 -140 0
-234 -219 -215 -161 -149 -140 0
-235 -217 -216 -155 -152 -140 0
-236 -218 -216 -158 -152 -140 0
-237 -219 -216 -161 -152 -140 0
-238 -218 -217 -158 -155 -140 0
-239 -219 -217 -161 -155 -140 0
-240 -219 -218 -161 -158 -140 0
-226 -221 -220 -149 -146 -143 0
-227 -222 -220 -152 -146 -143 0
-228 -223 -220 -155 -146 -143 0
-229 -224 -220 -158 -146 -143 0
-230 -225 -220 -161 -146 -143 0
-231 -222 -221 -152 -149 -143 0
-232 -223 -221 -155 -149 -143 0
-233 -224 -221 -158 -149 -143 0
-234 -225 -221 -161 -149 -143 0
-235 -223 -222 -155 -152 -143 0
-236 -224 -222 -158 -152 -143 0
-237 -225 -222 -161 -152 -143 0
-238 -224 -223 -158 -155 -143 0
-239 -225 -223 -161 -155 -143 0
-240 -225 -224 -161 -158 -143 0
-231 -227 -226 -152 -149 -146 0
-232 -228 -226 -155 -149 -146 0
-233 -229 -226 -158 -149 -146 0
-234 -230 -226 -161 -149 -146 0
-235 -228 -227 -155 -152 -146 0
-236 -229 -227 -158 -152 -146 0
-237 -230 -227 -161 -152 -146 0
-238 -229 -228 -158 -155 -146 0
-239 -230 -228 -161 -155 -146 0
-240 -230 -229 -161 -158 -146 0
-235 -232 -231 -155 -152 -149 0
-236 -233 -231 -158 -152 -149 0
-237 -234 -231 -161 -152 -149 0
-238 -233 -232 -158 -155 -149 0
-239 -234 -232 -161 -155 -149 0
-240 -234 -233 -161 -158 -149 0
-238 -236 -235 -158 -155 -152 0
-239 -237 -235 -161 -155 -152 0
-240 -237 -236 -161 -158 -152 0
-240 -239 -238 -161 -158 -155 0
-175 -164 -163 -130 -127 -121 0
-176 -165 -163 -133 -127 -121 0
-177 -166 -163 -136 -127 -121 0
-178 -167 -163 -139 -127 -121 0
-179 -168 -163 -142 -127 -121 0
-180 -169 -163 -145 -127 -121 0
-181 -170 -163 -148 -127 -121 0
-182 -171 -163 -151 -127 -121 0
-183 -172 -163 -154 -127 -121 0
-184 -173 -163 -157 -127 -121 0
-185 -174 -163 -160 -127 -121 0
-186 -165 -164 -133 -130 -121 0
-187 -166 -164 -136 -130 -121 0
-188 -167 -164 -139 -130 -121 0
-189 -168 -164 -142 -130 -121 0
-190 -169 -164 -145 -130 -121 0
-191 -170 -164 -148 -130 -121 0
-192 -171 -164 -151 -130 -121 0
-193 -172 -164 -154 -130 -121 0
-194 -173 -164 -157 -130 -121 0
-195 -174 -164 -160 -130 -121 0
-196 -166 -165 -136 -133 -121 0
-197 -167 -165 -139 -133 -121 0
-198 -168 -165 -142 -133 -121 0
-199 -169 -165 -145 -133 -121 0
-200 -170 -165 -148 -133 -121 0
-201 -171 -165 -151 -133 -121 0
-202 -172 -165 -154 -133 -121 0
-203 -173 -165 -157 -133 -121 0
-204 -174 -165 -160 -133 -121 0
-205 -167 -166 -139 -136 -121 0
-206 -168 -166 -142 -136 -121 0
-207 -169 -166 -145 -136 -121 0
-208 -170 -166 -148 -136 -121 0
-209 -171 -166 -151 -136 -121 0
-210 -172 -166 -154 -136 -121 0
-211 -173 -166 -157 -136 -121 0
-212 -174 -166 -160 -136 -121 0
-213 -168 -167 -142 -139 -121 0
-214 -169 -167 -145 -139 -121 0
-215 -170 -167 -148 -139 -121 0
-216 -171 -167 -151 -139 -121 0
-217 -172 -167 -154 -139 -121 0
-218 -173 -167 -157 -139 -121 0
-219 -174 -167 -160 -139 -121 0
-220 -169 -168 -145 -142 -121 0
-221 -170 -168 -148 -142 -121 0
-222 -171 -168 -151 -142 -121 0
-223 -172 -168 -154 -142 -121 0
-224 -173 -168 -157 -142 -121 0
-225 -174 -168 -160 -142 -121 0
-226 -170 -169 -148 -145 -121 0
-227 -171 -169 -151 -145 -121 0
-228 -172 -169 -154 -145 -121 0
-229 -173 -169 -157 -145 -121 0
-230 -174 -169 -160 -145 -121 0
-231 -171 -170 -151 -148 -121 0
-232 -172 -170 -154 -148 -121 0
-233 -173 -170 -157 -148 -121 0
-234 -174 -170 -160 -148 -121 0
-235 -172 -171 -154 -151 -121 0
-236 -173 -171 -157 -151 -121 0
-237 -174 -171 -160 -151 -121 0
-238 -173 -172 -157 -154 -121 0
-239 -174 -172 -160 -154 -121 0
-240 -174 -173 -160 -157 -121 0
-186 -176 -175 -133 -130 -127 0
-187 -177 -175 -136 -130 -127 0
-188 -178 -175 -139 -130 -127 0
-189 -179 -175 -142 -130 -127 0
-190 -180 -175 -145 -130 -127 0
-191 -181 -175 -148 -130 -127 0
-192 -182 -175 -151 -130 -127 0
-193 -183 -175 -154 -130 -127 0
-194 -184 -175 -157 -130 -127 0
-195 -185 -175 -160 -130 -127 0
-196 -177 -176 -136 -133 -127 0
-197 -178 -176 -139 -133 -127 0
-198 -179 -176 -142 -133 -127 0
-199 -180 -176 -145 -133 -127 0
-200 -181 -176 -148 -133 -127 0
-201 -182 -176 -151 -133 -127 0
-202 -183 -176 -154 -133 -127 0
-203 -184 -176 -157 -133 -127 0
-204 -185 -176 -160 -133 -127 0
-205 -178 -177 -139 -136 -127 0
-206 -179 -177 -142 -136 -127 0
-207 -180 -177 -145 -136 -127 0
-208 -181 -177 -148 -136 -127 0
-209 -182 -177 -151 -136 -127 0
-210 -183 -177 -154 -136 -127 0
-211 -184 -177 -157 -136 -127 0
-212 -185 -177 -160 -136 -127 0
-213 -179 -178 -142 -139 -127 0
-214 -180 -178 -145 -139 -127 0
-215 -181 -178 -148 -139 -127 0
-216 -182 -178 -151 -139 -127 0
-217 -183 -178 -154 -139 -127 0
-218 -184 -178 -157 -139 -127 0
-219 -185 -178 -160 -139 -127 0
-220 -180 -179 -145 -142 -127 0
-221 -181 -179 -148 -142 -127 0
-222 -182 -179 -151 -142 -127 0
-223 -183 -179 -154 -142 -127 0
-224 -184 -179 -157 -142 -127 0
-225 -185 -179 -160 -142 -127 0
-226 -181 -180 -148 -145 -127 0
-227 -182 -180 -151 -145 -127 0
-228 -183 -180 -154 -145 -127 0
-229 -184 -180 -157 -145 -127 0
-230 -185 -180 -160 -145 -127 0
-231 -182 -181 -151 -148 -127 0
-232 -183 -181 -154 -148 -127 0
-233 -184 -181 -157 -148 -127 0
-234 -185 -181 -160 -148 -127 0
-235 -183 -182 -154 -151 -127 0
-236 -184 -182 -157 -151 -127 0
-237 -185 -182 -160 -151 -127 0
-238 -184 -183 -157 -154 -127 0
-239 -185 -183 -160 -154 -127 0
-240 -185 -184 -160 -157 -127 0
-196 -187 -186 -136 -133 -130 0
-197 -188 -186 -139 -133 -130 0
-198 -189 -186 -142 -133 -130 0
-199 -190 -186 -145 -133 -130 0
-200 -191 -186 -148 -133 -130 0
-201 -192 -186 -151 -133 -130 0
-202 -193 -186 -154 -133 -130 0
-203 -194 -186 -157 -133 -130 0
-204 -195 -186 -160 -133 -130 0
-205 -188 -187 -139 -136 -130 0
-206 -189 -187 -142 -136 -130 0
-207 -190 -187 -145 -136 -130 0
-208 -191 -187 -148 -136 -130 0
-209 -192 -187 -151 -136 -130 0
-210 -193 -187 -154 -136 -130 0
-211 -194 -187 -157 -136 -130 0
-212 -195 -187 -160 -136 -130 0
-213 -189 -188 -142 -139 -130 0
-214 -190 -188 -145 -139 -130 0
-215 -191 -188 -148 -139 -130 0
-216 -192 -188 -151 -139 -130 0
-217 -193 -188 -154 -139 -130 0
-218 -194 -188 -157 -139 -130 0
-219 -195 -188 -160 -139 -130 0
-220 -190 -189 -145 -142 -130 0
-221 -191 -189 -148 -142 -130 0
-222 -192 -189 -151 -142 -130 0
-223 -193 -189 -154 -142 -130 0
-224 -194 -189 -157 -142 -130 0
-225 -195 -189 -160 -142 -130 0
-226 -191 -190 -148 -145 -130 0
-227 -192 -190 -151 -145 -130 0
-228 -193 -190 -154 -145 -130 0
-229 -194 -190 -157 -145 -130 0
-230 -195 -190 -160 -145 -130 0
-231 -192 -191 -151 -148 -130 0
-232 -193 -191 -154 -148 -130 0
-233 -194 -191 -157 -148 -130 0
-234 -195 -191 -160 -148 -130 0
-235 -193 -192 -154 -151 -130 0
-236 -194 -192 -157 -151 -130 0
-237 -195 -192 -160 -151 -130 0
-238 -194 -193 -157 -154 -130 0
-239 -195 -193 -160 -154 -130 0
-240 -195 -194 -160 -157 -130 0
-205 -197 -196 -139 -136 -133 0
-206 -198 -196 -142 -136 -133 0
-207 -199 -196 -145 -136 -133 0
-208 -200 -196 -148 -136 -133 0
-209 -201 -196 -151 -136 -133 0
-210 -202 -196 -154 -136 -133 0
-211 -203 -196 -157 -136 -133 0
-212 -204 -196 -160 -136 -133 0
-213 -198 -197 -142 -139 -133 0
-214 -199 -197 -145 -139 -133 0
-215 -200 -197 -148 -139 -133 0
-216 -201 -197 -151 -139 -133 0
-217 -202 -197 -154 -139 -133 0
-218 -203 -197 -157 -139 -133 0
-219 -204 -197 -160 -139 -133 0
-220 -199 -198 -145 -142 -133 0
-221 -200 -198 -148 -142 -133 0
-222 -201 -198 -151 -142 -133 0
-223 -202 -198 -154 -142 -133 0
-224 -203 -198 -157 -142 -133 0
-225 -204 -198 -160 -142 -133 0
-226 -200 -199 -148 -145 -133 0
-227 -201 -199 -151 -145 -133 0
-228 -202 -199 -154 -145 -133 0
-229 -203 -199 -157 -145 -133 0
-230 -204 -199 -160 -145 -133 0
-231 -201 -200 -151 -148 -133 0
-232 -202 -200 -154 -148 -133 0
-233 -203 -200 -157 -148 -133 0
-234 -204 -200 -160 -148 -133 0
-235 -202 -201 -154 -151 -133 0
-236 -203 -201 -157 -151 -133 0
-237 -204 -201 -160 -151 -133 0
-238 -203 -202 -157 -154 -133 0
-239 -204 -202 -160 -154 -133 0
-240 -204 -203 -160 -157 -133 0
-213 -206 -205 -142 -139 -136 0
-214 -207 -205 -145 -139 -136 0
-215 -208 -205 -148 -139 -136 0
-216 -209 -205 -151 -139 -136 0
-217 -210 -205 -154 -139 -136 0
-218 -211 -205 -157 -139 -136 0
-219 -212 -205 -160 -139 -136 0
-220 -207 -206 -145 -142 -136 0
-221 -208 -206 -148 -142 -136 0
-222 -209 -206 -151 -142 -136 0
-223 -210 -206 -154 -142 -136 0
-224 -211 -206 -157 -142 -136 0
-225 -212 -206 -160 -142 -136 0
-226 -208 -207 -148 -145 -136 0
-227 -209 -207 -151 -145 -136 0
-228 -210 -207 -154 -145 -136 0
-229 -211 -207 -157 -145 -136 0
-230 -212 -207 -160 -145 -136 0
-231 -209 -208 -151 -148 -136 0
-232 -210 -208 -154 -148 -136 0
-233 -211 -208 -157 -148 -136 0
-234 -212 -208 -160 -148 -136 0
-235 -210 -209 -154 -151 -136 0
-236 -211 -209 -157 -151 -136 0
-237 -212 -209 -160 -151 -136 0
-238 -211 -210 -157 -154 -136 0
-239 -212 -210 -160 -154 -136 0
-240 -212 -211 -160 -157 -136 0
-220 -214 -213 -145 -142 -139 0
-221 -215 -213 -148 -142 -139 0
-222 -216 -213 -151 -142 -139 0
-223 -217 -213 -154 -142 -139 0
-224 -218 -213 -157 -142 -139 0
-225 -219 -213 -160 -142 -139 0
-226 -215 -214 -148 -145 -139 0
-227 -216 -214 -151 -145 -139 0
-228 -217 -214 -154 -145 -139 0
-229 -218 -214 -157 -145 -139 0
-230 -219 -214 -160 -145 -139 0
-231 -216 -215 -151 -148 -139 0
-232 -217 -215 -154 -148 -139 0
-233 -218 -215 -157 -148 -139 0
-234 -219 -215 -160 -148 -139 0
-235 -217 -216 -154 -151 -139 0
-236 -218 -216 -157 -151 -139 0
-237 -219 -216 -160 -151 -139 0
-238 -218 -217 -157 -154 -139 0
-239 -219 -217 -160 -154 -139 0
-240 -219 -218 -160 -157 -139 0
-226 -221 -220 -148 -145 -142 0
-227 -222 -220 -151 -145 -142 0
-228 -223 -220 -154 -145 -142 0
-229 -224 -220 -157 -145 -142 0
-230 -225 -220 -160 -145 -142 0
-231 -222 -221 -151 -148 -142 0
-232 -223 -221 -154 -148 -142 0
-233 -224 -221 -157 -148 -142 0
-234 -225 -221 -160 -148 -142 0
-235 -223 -222 -154 -151 -142 0
-236 -224 -222 -157 -151 -142 0
-237 -225 -222 -160 -151 -142 0
-238 -224 -223 -157 -154 -142 0
-239 -225 -223 -160 -154 -142 0
-240 -225 -224 -160 -157 -142 0
-231 -227 -226 -151 -148 -145 0
-232 -228 -226 -154 -148 -145 0
-233 -229 -226 -157 -148 -145 0
-234 -230 -226 -160 -148 -145 0
-235 -228 -227 -154 -151 -145 0
-236 -229 -227 -157 -151 -145 0
-237 -230 -227 -160 -151 -145 0
-238 -229 -228 -157 -154 -145 0
-239 -230 -228 -160 -154 -145 0
-240 -230 -229 -160 -157 -145 0
-235 -232 -231 -154 -151 -148 0
-236 -233 -231 -157 -151 -148 0
-237 -234 -231 -160 -151 -148 0
-238 -233 -232 -157 -154 -148 0
-239 -234 -232 -160 -154 -148 0
-240 -234 -233 -160 -157 -148 0
-238 -236 -235 -157 -154 -151 0
-239 -237 -235 -160 -154 -151 0
-240 -237 -236 -160 -157 -151 0
-240 -239 -238 -160 -157 -154 0
-186 -176 -175 -165 -164 -163 0
-187 -177 -175 -166 -164 -163 0
-188 -178 -175 -167 -164 -163 0
-189 -179 -175 -168 -164 -163 0
-190 -180 -175 -169 -164 -163 0
-191 -181 -175 -170 -164 -163 0
-192 -182 -175 -171 -164 -163 0
-193 -183 -175 -172 -164 -163 0
-194 -184 -175 -173 -164 -163 0
-195 -185 -175 -174 -164 -163 0
-196 -177 -176 -166 -165 -163 0
-197 -178 -176 -167 -165 -163 0
-198 -179 -176 -168 -165 -163 0
-199 -180 -176 -169 -165 -163 0
-200 -181 -176 -170 -165 -163 0
-201 -182 -176 -171 -165 -163 0
-202 -183 -176 -172 -165 -163 0
-203 -184 -176 -173 -165 -163 0
-204 -185 -176 -174 -165 -163 0
-205 -178 -177 -167 -166 -163 0
-206 -179 -177 -168 -166 -163 0
-207 -180 -177 -169 -166 -163 0
-208 -181 -177 -170 -166 -163 0
-209 -182 -177 -171 -166 -163 0
-210 -183 -177 -172 -166 -163 0
-211 -184 -177 -173 -166 -163 0
-212 -185 -177 -174 -166 -163 0
-213 -179 -178 -168 -167 -163 0
-214 -180 -178 -169 -167 -163 0
-215 -181 -178 -170 -167 -163 0
-216 -182 -178 -171 -167 -163 0
-217 -183 -178 -172 -167 -163 0
-218 -184 -178 -173 -167 -163 0
-219 -185 -178 -174 -167 -163 0
-220 -180 -179 -169 -168 -163 0
-221 -181 -179 -170 -168 -163 0
-222 -182 -179 -171 -168 -163 0
-223 -183 -179 -172 -168 -163 0
-224 -184 -179 -173 -168 -163 0
-225 -185 -179 -174 -168 -163 0
-226 -181 -180 -170 -169 -163 0
-227 -182 -180 -171 -169 -163 0
-228 -183 -180 -172 -169 -163 0
-229 -184 -180 -173 -169 -163 0
-230 -185 -180 -174 -169 -163 0
-231 -182 -181 -171 -170 -163 0
-232 -183 -181 -172 -170 -163 0
-233 -184 -181 -173 -170 -163 0
-234 -185 -181 -174 -170 -163 0
-235 -183 -182 -172 -171 -163 0
-236 -184 -182 -173 -171 -163 0
-237 -185 -182 -174 -171 -163 0
-238 -184 -183 -173 -172 -163 0
-239 -185 -183 -174 -172 -163 0
-240 -185 -184 -174 -173 -163 0
-196 -187 -186 -166 -165 -164 0
-197 -188 -186 -167 -165 -164 0
-198 -189 -186 -168 -165 -164 0
-199 -190 -186 -169 -165 -164 0
-200 -191 -186 -170 -165 -164 0
-201 -192 -186 -171 -165 -164 0
-202 -193 -186 -172 -165 -164 0
-203 -194 -186 -173 -165 -164 0
-204 -195 -186 -174 -165 -164 0
-205 -188 -187 -167 -166 -164 0
-206 -189 -187 -168 -166 -164 0
-207 -190 -187 -169 -166 -164 0
-208 -191 -187 -170 -166 -164 0
-209 -192 -187 -171 -166 -164 0
-210 -193 -187 -172 -166 -164 0
-211 -194 -187 -173 -166 -164 0
-212 -195 -187 -174 -166 -164 0
-213 -189 -188 -168 -167 -164 0
-214 -190 -188 -169 -167 -164 0
-215 -191 -188 -170 -167 -164 0
-216 -192 -188 -171 -167 -164 0
-217 -193 -188 -172 -167 -164 0
-218 -194 -188 -173 -167 -164 0
-219 -195 -188 -174 -167 -164 0
-220 -190 -189 -169 -168 -164 0
-221 -191 -189 -170 -168 -164 0
-222 -192 -189 -171 -168 -164 0
-223 -193 -189 -172 -168 -164 0
-224 -194 -189 -173 -168 -164 0
-225 -195 -189 -174 -168 -164 0
-226 -191 -190 -170 -169 -164 0
-227 -192 -190 -171 -169 -164 0
-228 -193 -190 -172 -169 -164 0
-229 -194 -190 -173 -169 -164 0
-230 -195 -190 -174 -169 -164 0
-231 -192 -191 -171 -170 -164 0
-232 -193 -191 -172 -170 -164 0
-233 -194 -191 -173 -170 -164 0
-234 -195 -191 -174 -170 -164 0
-235 -193 -192 -172 -171 -164 0
-236 -194 -192 -173 -171 -164 0
-237 -195 -192 -174 -171 -164 0
-238 -194 -193 -173 -172 -164 0
-239 -195 -193 -174 -172 -164 0
-240 -195 -194 -174 -173 -164 0
-205 -197 -196 -167 -166 -165 0
-206 -198 -196 -168 -166 -165 0
-207 -199 -196 -169 -166 -165 0
-208 -200 -196 -170 -166 -165 0
-209 -201 -196 -171 -166 -165 0
-210 -202 -196 -172 -166 -165 0
-211 -203 -196 -173 -166 -165 0
-212 -204 -196 -174 -166 -165 0
-213 -198 -197 -168 -167 -165 0
-214 -199 -197 -169 -167 -165 0
-215 -200 -197 -170 -167 -165 0
-216 -201 -197 -171 -167 -165 0
-217 -202 -197 -172 -167 -165 0
-218 -203 -197 -173 -167 -165 0
-219 -204 -197 -174 -167 -165 0
-220 -199 -198 -169 -168 -165 0
-221 -200 -198 -170 -168 -165 0
-222 -201 -198 -171 -168 -165 0
-223 -202 -198 -172 -168 -165 0
-224 -203 -198 -173 -168 -165 0
-225 -204 -198 -174 -168 -165 0
-226 -200 -199 -170 -169 -165 0
-227 -201 -199 -171 -169 -165 0
-228 -202 -199 -172 -169 -165 0
-229 -203 -199 -173 -169 -165 0
-230 -204 -199 -174 -169 -165 0
-231 -201 -200 -171 -170 -165 0
-232 -202 -200 -172 -170 -165 0
-233 -203 -200 -173 -170 -165 0
-234 -204 -200 -174 -170 -165 0
-235 -202 -201 -172 -171 -165 0
-236 -203 -201 -173 -171 -165 0
-237 -204 -201 -174 -171 -165 0
-238 -203 -202 -173 -172 -165 0
-239 -204 -202 -174 -172 -165 0
-240 -204 -203 -174 -173 -165 0
-213 -206 -205 -168 -167 -166 0
-214 -207 -205 -169 -167 -166 0
-215 -208 -205 -170 -167 -166 0
-216 -209 -205 -171 -167 -166 0
-217 -210 -205 -172 -167 -166 0
-218 -211 -205 -173 -167 -166 0
-219 -212 -205 -174 -167 -166 0
-220 -207 -206 -169 -168 -166 0
-221 -208 -206 -170 -168 -166 0
-222 -209 -206 -171 -168 -166 0
-223 -210 -206 -172 -168 -166 0
-224 -211 -206 -173 -168 -166 0
-225 -212 -206 -174 -168 -166 0
-226 -208 -207 -170 -169 -166 0
-227 -209 -207 -171 -169 -166 0
-228 -210 -207 -172 -169 -166 0
-229 -211 -207 -173 -169 -166 0
-230 -212 -207 -174 -169 -166 0
-231 -209 -208 -171 -170 -166 0
-232 -210 -208 -172 -170 -166 0
-233 -211 -208 -173 -170 -166 0
-234 -212 -208 -174 -170 -166 0
-235 -210 -209 -172 -171 -166 0
-236 -211 -209 -173 -171 -166 0
-237 -212 -209 -174 -171 -166 0
-238 -211 -210 -173 -172 -166 0
-239 -212 -210 -174 -172 -166 0
-240 -212 -211 -174 -173 -166 0
-220 -214 -213 -169 -168 -167 0
-221 -215 -213 -170 -168 -167 0
-222 -216 -213 -171 -168 -167 0
-223 -217 -213 -172 -168 -167 0
-224 -218 -213 -173 -168 -167 0
-225 -219 -213 -174 -168 -167 0
-226 -215 -214 -170 -169 -167 0
-227 -216 -214 -171 -169 -167 0
-228 -217 -214 -172 -169 -167 0
-229 -218 -214 -173 -169 -167 0
-230 -219 -214 -174 -169 -167 0
-231 -216 -215 -171 -170 -167 0
-232 -217 -215 -172 -170 -167 0
-233 -218 -215 -173 -170 -167 0
-234 -219 -215 -174 -170 -167 0
-235 -217 -216 -172 -171 -167 0
-236 -218 -216 -173 -171 -167 0
-237 -219 -216 -174 -171 -167 0
-238 -218 -217 -173 -172 -167 0
-239 -219 -217 -174 -172 -167 0
-240 -219 -218 -174 -173 -167 0
-226 -221 -220 -170 -169 -168 0
-227 -222 -220 -171 -169 -168 0
-228 -223 -220 -172 -169 -168 0
-229 -224 -220 -173 -169 -168 0
-230 -225 -220 -174 -169 -168 0
-231 -222 -221 -171 -170 -168 0
-232 -223 -221 -172 -170 -168 0
-233 -224 -221 -173 -170 -168 0
-234 -225 -221 -174 -170 -168 0
-235 -223 -222 -172 -171 -168 0
-236 -224 -222 -173 -171 -168 0
-237 -225 -222 -174 -171 -168 0
-238 -224 -223 -173 -172 -168 0
-239 -225 -223 -174 -172 -168 0
-240 -225 -224 -174 -173 -168 0
-231 -227 -226 -171 -170 -169 0
-232 -228 -226 -172 -170 -169 0
-233 -229 -226 -173 -170 -169 0
-234 -230 -226 -174 -170 -169 0
-235 -228 -227 -172 -171 -169 0
-236 -229 -227 -173 -171 -169 0
-237 -230 -227 -174 -171 -169 0
-238 -229 -228 -173 -172 -169 0
-239 -230 -228 -174 -172 -169 0
-240 -230 -229 -174 -173 -169 0
-235 -232 -231 -172 -171 -170 0
-236 -233 -231 -173 -171 -170 0
-237 -234 -231 -174 -171 -170 0
-238 -233 -232 -173 -172 -170 0
-239 -234 -232 -174 -172 -170 0
-240 -234 -233 -174 -173 -170 0
-238 -236 -235 -173 -172 -171 0
-239 -237 -235 -174 -172 -171 0
-240 -237 -236 -174 -173 -171 0
-240 -239 -238 -174 -173 -172 0
-196 -187 -186 -177 -176 -175 0
-197 -188 -186 -178 -176 -175 0
-198 -189 -186 -179 -176 -175 0
-199 -190 -186 -180 -176 -175 0
-200 -191 -186 -181 -176 -175 0
-201 -192 -186 -182 -176 -175 0
-202 -193 -186 -183 -176 -175 0
-203 -194 -186 -184 -176 -175 0
-204 -195 -186 -185 -176 -175 0
-205 -188 -187 -178 -177 -175 0
-206 -189 -187 -179 -177 -175 0
-207 -190 -187 -180 -177 -175 0
-208 -191 -187 -181 -177 -175 0
-209 -192 -187 -182 -177 -175 0
-210 -193 -187 -183 -177 -175 0
-211 -194 -187 -184 -177 -175 0
-212 -195 -187 -185 -177 -175 0
-213 -189 -188 -179 -178 -175 0
-214 -190 -188 -180 -178 -175 0
-215 -191 -188 -181 -178 -175 0
-216 -192 -188 -182 -178 -175 0
-217 -193 -188 -183 -178 -175 0
-218 -194 -188 -184 -178 -175 0
-219 -195 -188 -185 -178 -175 0
-220 -190 -189 -180 -179 -175 0
-221 -191 -189 -181 -179 -175 0
-222 -192 -189 -182 -179 -175 0
-223 -193 -189 -183 -179 -175 0
-224 -194 -189 -184 -179 -175 0
-225 -195 -189 -185 -179 -175 0
-226 -191 -190 -181 -180 -175 0
-227 -192 -190 -182 -180 -175 0
-228 -193 -190 -183 -180 -175 0
-229 -194 -190 -184 -180 -175 0
-230 -195 -190 -185 -180 -175 0
-231 -192 -191 -182 -181 -175 0
-232 -193 -191 -183 -181 -175 0
-233 -194 -191 -184 -181 -175 0
-234 -195 -191 -185 -181 -175 0
-235 -193 -192 -183 -182 -175 0
-236 -194 -192 -184 -182 -175 0
-237 -195 -192 -185 -182 -175 0
-238 -194 -193 -184 -183 -175 0
-239 -195 -193 -185 -183 -175 0
-240 -195 -194 -185 -184 -175 0
-205 -197 -196 -178 -177 -176 0
-206 -198 -196 -179 -177 -176 0
-207 -199 -196 -180 -177 -176 0
-208 -200 -196 -181 -177 -176 0
-209 -201 -196 -182 -177 -176 0
-210 -202 -196 -183 -177 -176 0
-211 -203 -196 -184 -177 -176 0
-212 -204 -196 -185 -177 -176 0
-213 -198 -197 -179 -178 -176 0
-214 -199 -197 -180 -178 -176 0
-215 -200 -197 -181 -178 -176 0
-216 -201 -197 -182 -178 -176 0
-217 -202 -197 -183 -178 -176 0
-218 -203 -197 -184 -178 -176 0
-219 -204 -197 -185 -178 -176 0
-220 -199 -198 -180 -179 -176 0
-221 -200 -198 -181 -179 -176 0
-222 -201 -198 -182 -179 -176 0
-223 -202 -198 -183 -179 -176 0
-224 -203 -198 -184 -179 -176 0
-225 -204 -198 -185 -179 -176 0
-226 -200 -199 -181 -180 -176 0
-227 -201 -199 -182 -180 -176 0
-228 -202 -199 -183 -180 -176 0
-229 -203 -199 -184 -180 -176 0
-230 -204 -199 -185 -180 -176 0
-231 -201 -200 -182 -181 -176 0
-232 -202 -200 -183 -181 -176 0
-233 -203 -200 -184 -181 -176 0
-234 -204 -200 -185 -181 -176 0
-235 -202 -201 -183 -182 -176 0
-236 -203 -201 -184 -182 -176 0
-237 -204 -201 -185 -182 -176 0
-238 -203 -202 -184 -183 -176 0
-239 -204 -202 -185 -183 -176 0
-240 -204 -203 -185 -184 -176 0
-213 -206 -205 -179 -178 -177 0
-214 -207 -205 -180 -178 -177 0
-215 -208 -205 -181 -178 -177 0
-216 -209 -205 -182 -178 -177 0
-217 -210 -205 -183 -178 -177 0
-218 -211 -205 -184 -178 -177 0
-219 -212 -205 -185 -178 -177 0
-220 -207 -206 -180 -179 -177 0
-221 -208 -206 -181 -179 -177 0
-222 -209 -206 -182 -179 -177 0
-223 -210 -206 -183 -179 -177 0
-224 -211 -206 -184 -179 -177 0
-225 -212 -206 -185 -179 -177 0
-226 -208 -207 -181 -180 -177 0
-227 -209 -207 -182 -180 -177 0
-228 -210 -207 -183 -180 -177 0
-229 -211 -207 -184 -180 -177 0
-230 -212 -207 -185 -180 -177 0
-231 -209 -208 -182 -181 -177 0
-232 -210 -208 -183 -181 -177 0
-233 -211 -208 -184 -181 -177 0
-234 -212 -208 -185 -181 -177 0
-235 -210 -209 -183 -182 -177 0
-236 -211 -209 -184 -182 -177 0
-237 -212 -209 -185 -182 -177 0
-238 -211 -210 -184 -183 -177 0
-239 -212 -210 -185 -183 -177 0
-240 -212 -211 -185 -184 -177 0
-220 -214 -213 -180 -179 -178 0
-221 -215 -213 -181 -179 -178 0
-222 -216 -213 -182 -179 -178 0
-223 -217 -213 -183 -179 -178 0
-224 -218 -213 -184 -179 -178 0
-225 -219 -213 -185 -179 -178 0
-226 -215 -214 -181 -180 -178 0
-227 -216 -214 -182 -180 -178 0
-228 -217 -214 -183 -180 -178 0
-229 -218 -214 -184 -180 -178 0
-230 -219 -214 -185 -180 -178 0
-231 -216 -215 -182 -181 -178 0
-232 -217 -215 -183 -181 -178 0
-233 -218 -215 -184 -181 -178 0
-234 -219 -215 -185 -181 -178 0
-235 -217 -216 -183 -182 -178 0
-236 -218 -216 -184 -182 -178 0
-237 -219 -216 -185 -182 -178 0
-238 -218 -217 -184 -183 -178 0
-239 -219 -217 -185 -183 -178 0
-240 -219 -218 -185 -184 -178 0
-226 -221 -220 -181 -180 -179 0
-227 -222 -220 -182 -180 -179 0
-228 -223 -220 -183 -180 -179 0
-229 -224 -220 -184 -180 -179 0
-230 -225 -220 -185 -180 -179 0
-231 -222 -221 -182 -181 -179 0
-232 -223 -221 -183 -181 -179 0
-233 -224 -221 -184 -181 -179 0
-234 -225 -221 -185 -181 -179 0
-235 -223 -222 -183 -182 -179 0
-236 -224 -222 -184 -182 -179 0
-237 -225 -222 -185 -182 -179 0
-238 -224 -223 -184 -183 -179 0
-239 -225 -223 -185 -183 -179 0
-240 -225 -224 -185 -184 -179 0
-231 -227 -226 -182 -181 -180 0
-232 -228 -226 -183 -181 -180 0
-233 -229 -226 -184 -181 -180 0
-234 -230 -226 -185 -181 -180 0
-235 -228 -227 -183 -182 -180 0
-236 -229 -227 -184 -182 -180 0
-237 -230 -227 -185 -182 -180 0
-238 -229 -228 -184 -183 -180 0
-239 -230 -228 -185 -183 -180 0
-240 -230 -229 -185 -184 -180 0
-235 -232 -231 -183 -182 -181 0
-236 -233 -231 -184 -182 -181 0
-237 -234 -231 -185 -182 -181 0
-238 -233 -232 -184 -183 -181 0
-239 -234 -232 -185 -183 -181 0
-240 -234 -233 -185 -184 -181 0
-238 -236 -235 -184 -183 -182 0
-239 -237 -235 -185 -183 -182 0
-240 -237 -236 -185 -184 -182 0
-240 -239 -238 -185 -184 -183 0
-205 -197 -196 -188 -187 -186 0
-206 -198 -196 -189 -187 -186 0
-207 -199 -196 -190 -187 -186 0
-208 -200 -196 -191 -187 -186 0
-209 -201 -196 -192 -187 -186 0
-210 -202 -196 -193 -187 -186 0
-211 -203 -196 -194 -187 -186 0
-212 -204 -196 -195 -187 -186 0
-213 -198 -197 -189 -188 -186 0
-214 -199 -197 -190 -188 -186 0
-215 -200 -197 -191 -188 -186 0
-216 -201 -197 -192 -188 -186 0
-217 -202 -197 -193 -188 -186 0
-218 -203 -197 -194 -188 -186 0
-219 -204 -197 -195 -188 -186 0
-220 -199 -198 -190 -189 -186 0
-221 -200 -198 -191 -189 -186 0
-222 -201 -198 -192 -189 -186 0
-223 -202 -198 -193 -189 -186 0
-224 -203 -198 -194 -189 -186 0
-225 -204 -198 -195 -189 -186 0
-226 -200 -199 -191 -190 -186 0
-227 -201 -199 -192 -190 -186 0
-228 -202 -199 -193 -190 -186 0
-229 -203 -199 -194 -190 -186 0
-230 -204 -199 -195 -190 -186 0
-231 -201 -200 -192 -191 -186 0
-232 -202 -200 -193 -191 -186 0
-233 -203 -200 -194 -191 -186 0
-234 -204 -200 -195 -191 -186 0
-235 -202 -201 -193 -192 -186 0
-236 -203 -201 -194 -192 -186 0
-237 -204 -201 -195 -192 -186 0
-238 -203 -202 -194 -193 -186 0
-239 -204 -202 -195 -193 -186 0
-240 -204 -203 -195 -194 -186 0
-213 -206 -205 -189 -188 -187 0
-214 -207 -205 -190 -188 -187 0
-215 -208 -205 -191 -188 -187 0
-216 -209 -205 -192 -188 -187 0
-217 -210 -205 -193 -188 -187 0
-218 -211 -205 -194 -188 -187 0
-219 -212 -205 -195 -188 -187 0
-220 -207 -206 -190 -189 -187 0
-221 -208 -206 -191 -189 -187 0
-222 -209 -206 -192 -189 -187 0
-223 -210 -206 -193 -189 -187 0
-224 -211 -206 -194 -189 -187 0
-225 -212 -206 -195 -189 -187 0
-226 -208 -207 -191 -190 -187 0
-227 -209 -207 -192 -190 -187 0
-228 -210 -207 -193 -190 -187 0
-229 -211 -207 -194 -190 -187 0
-230 -212 -207 -195 -190 -187 0
-231 -209 -208 -192 -191 -187 0
-232 -210 -208 -193 -191 -187 0
-233 -211 -208 -194 -191 -187 0
-234 -212 -208 -195 -191 -187 0
-235 -210 -209 -193 -192 -187 0
-236 -211 -209 -194 -192 -187 0
-237 -212 -209 -195 -192 -187 0
-238 -211 -210 -194 -193 -187 0
-239 -212 -210 -195 -193 -187 0
-240 -212 -211 -195 -194 -187 0
-220 -214 -213 -190 -189 -188 0
-221 -215 -213 -191 -189 -188 0
-222 -216 -213 -192 -189 -188 0
-223 -217 -213 -193 -189 -188 0
-224 -218 -213 -194 -189 -188 0
-225 -219 -213 -195 -189 -188 0
-226 -215 -214 -191 -190 -188 0
-227 -216 -214 -192 -190 -188 0
-228 -217 -214 -193 -190 -188 0
-229 -218 -214 -194 -190 -188 0
-230 -219 -214 -195 -190 -188 0
-231 -216 -215 -192 -191 -188 0
-232 -217 -215 -193 -191 -188 0
-233 -218 -215 -194 -191 -188 0
-234 -219 -215 -195 -191 -188 0
-235 -217 -216 -193 -192 -188 0
-236 -218 -216 -194 -192 -188 0
-237 -219 -216 -195 -192 -188 0
-238 -218 -217 -194 -193 -188 0
-239 -219 -217 -195 -193 -188 0
-240 -219 -218 -195 -194 -188 0
-226 -221 -220 -191 -190 -189 0
-227 -222 -220 -192 -190 -189 0
-228 -223 -220 -193 -190 -189 0
-229 -224 -220 -194 -190 -189 0
-230 -225 -220 -195 -190 -189 0
-231 -222 -221 -192 -191 -189 0
-232 -223 -221 -193 -191 -189 0
-233 -224 -221 -194 -191 -189 0
-234 -225 -221 -195 -191 -189 0
-235 -223 -222 -193 -192 -189 0
-236 -224 -222 -194 -192 -189 0
-237 -225 -222 -195 -192 -189 0
-238 -224 -223 -194 -193 -189 0
-239 -225 -223 -195 -193 -189 0
-240 -225 -224 -195 -194 -189 0
-231 -227 -226 -192 -191 -190 0
-232 -228 -226 -193 -191 -190 0
-233 -229 -226 -194 -191 -190 0
-234 -230 -226 -195 -191 -190 0
-235 -228 -227 -193 -192 -190 0
-236 -229 -227 -194 -192 -190 0
-237 -230 -227 -195 -192 -190 0
-238 -229 -228 -194 -193 -190 0
-239 -230 -228 -195 -193 -190 0
-240 -230 -229 -195 -194 -190 0
-235 -232 -231 -193 -192 -191 0
-236 -233 -231 -194 -192 -191 0
-237 -234 -231 -195 -192 -191 0
-238 -233 -232 -194 -193 -191 0
-239 -234 -232 -195 -193 -191 0
-240 -234 -233 -195 -194 -191 0
-238 -236 -235 -194 -193 -192 0
-239 -237 -235 -195 -193 -192 0
-240 -237 -236 -195 -194 -192 0
-240 -239 -238 -195 -194 -193 0
-213 -206 -205 -198 -197 -196 0
-214 -207 -205 -199 -197 -196 0
-215 -208 -205 -200 -197 -196 0
-216 -209 -205 -201 -197 -196 0
-217 -210 -205 -202 -197 -196 0
-218 -211 -205 -203 -197 -196 0
-219 -212 -205 -204 -197 -196 0
-220 -207 -206 -199 -198 -196 0
-221 -208 -206 -200 -198 -196 0
-222 -209 -206 -201 -198 -196 0
-223 -210 -206 -202 -198 -196 0
-224 -211 -206 -203 -198 -196 0
-225 -212 -206 -204 -198 -196 0
-226 -208 -207 -200 -199 -196 0
-227 -209 -207 -201 -199 -196 0
-228 -210 -207 -202 -199 -196 0
-229 -211 -207 -203 -199 -196 0
-230 -212 -207 -204 -199 -196 0
-231 -209 -208 -201 -200 -196 0
-232 -210 -208 -202 -200 -196 0
-233 -211 -208 -203 -200 -196 0
-234 -212 -208 -204 -200 -196 0
-235 -210 -209 -202 -201 -196 0
-236 -211 -209 -203 -201 -196 0
-237 -212 -209 -204 -201 -196 0
-238 -211 -210 -203 -202 -196 0
-239 -212 -210 -204 -202 -196 0
-240 -212 -211 -204 -203 -196 0
-220 -214 -213 -199 -198 -197 0
-221 -215 -213 -200 -198 -197 0
-222 -216 -213 -201 -198 -197 0
-223 -217 -213 -202 -198 -197 0
-224 -218 -213 -203 -198 -197 0
-225 -219 -213 -204 -198 -197 0
-226 -215 -214 -200 -199 -197 0
-227 -216 -214 -201 -199 -197 0
-228 -217 -214 -202 -199 -197 0
-229 -218 -214 -203 -199 -197 0
-230 -219 -214 -204 -199 -197 0
-231 -216 -215 -201 -200 -197 0
-232 -217 -215 -202 -200 -197 0
-233 -218 -215 -203 -200 -197 0
-234 -219 -215 -204 -200 -197 0
-235 -217 -216 -202 -201 -197 0
-236 -218 -216 -203 -201 -197 0
-237 -219 -216 -204 -201 -197 0
-238 -218 -217 -203 -202 -197 0
-239 -219 -217 -204 -202 -197 0
-240 -219 -218 -204 -203 -197 0
-226 -221 -220 -200 -199 -198 0
-227 -222 -220 -201 -199 -198 0
-228 -223 -220 -202 -199 -198 0
-229 -224 -220 -203 -199 -198 0
-230 -225 -220 -204 -199 -198 0
-231 -222 -221 -201 -200 -198 0
-232 -223 -221 -202 -200 -198 0
-233 -224 -221 -203 -200 -198 0
-234 -225 -221 -204 -200 -198 0
-235 -223 -222 -202 -201 -198 0
-236 -224 -222 -203 -201 -198 0
-237 -225 -222 -204 -201 -198 0
-238 -224 -223 -203 -202 -198 0
-239 -225 -223 -204 -202 -198 0
-240 -225 -224 -204 -203 -198 0
-231 -227 -226 -201 -200 -199 0
-232 -228 -226 -202 -200 -199 0
-233 -229 -226 -203 -200 -199 0
-234 -230 -226 -204 -200 -199 0
-235 -228 -227 -202 -201 -199 0
-236 -229 -227 -203 -201 -199 0
-237 -230 -227 -204 -201 -199 0
-238 -229 -228 -203 -202 -199 0
-239 -230 -228 -204 -202 -199 0
-240 -230 -229 -204 -203 -199 0
-235 -232 -231 -202 -201 -200 0
-236 -233 -231 -203 -201 -200 0
-237 -234 -231 -204 -201 -200 0
-238 -233 -232 -203 -202 -200 0
-239 -234 -232 -204 -202 -200 0
-240 -234 -233 -204 -203 -200 0
-238 -236 -235 -203 -202 -201 0
-239 -237 -235 -204 -202 -201 0
-240 -237 -236 -204 -203 -201 0
-240 -239 -238 -204 -203 -202 0
-220 -214 -213 -207 -206 -205 0
-221 -215 -213 -208 -206 -205 0
-222 -216 -213 -209 -206 -205 0
-223 -217 -213 -210 -206 -205 0
-224 -218 -213 -211 -206 -205 0
-225 -219 -213 -212 -206 -205 0
-226 -215 -214 -208 -207 -205 0
-227 -216 -214 -209 -207 -205 0
-228 -217 -214 -210 -207 -205 0
-229 -218 -214 -211 -207 -205 0
-230 -219 -214 -212 -207 -205 0
-231 -216 -215 -209 -208 -205 0
-232 -217 -215 -210 -208 -205 0
-233 -218 -215 -211 -208 -205 0
-234 -219 -215 -212 -208 -205 0
-235 -217 -216 -210 -209 -205 0
-236 -218 -216 -211 -209 -205 0
-237 -219 -216 -212 -209 -205 0
-238 -218 -217 -211 -210 -205 0
-239 -219 -217 -212 -210 -205 0
-240 -219 -218 -212 -211 -205 0
-226 -221 -220 -208 -207 -206 0
-227 -222 -220 -209 -207 -206 0
-228 -223 -220 -210 -207 -206 0
-229 -224 -220 -211 -207 -206 0
-230 -225 -220 -212 -207 -206 0
-231 -222 -221 -209 -208 -206 0
-232 -223 -221 -210 -208 -206 0
-233 -224 -221 -211 -208 -206 0
-234 -225 -221 -212 -208 -206 0
-235 -223 -222 -210 -209 -206 0
-236 -224 -222 -211 -209 -206 0
-237 -225 -222 -212 -209 -206 0
-238 -224 -223 -211 -210 -206 0
-239 -225 -223 -212 -210 -206 0
-240 -225 -224 -212 -211 -206 0
-231 -227 -226 -209 -208 -207 0
-232 -228 -226 -210 -208 -207 0
-233 -229 -226 -211 -208 -207 0
-234 -230 -226 -212 -208 -207 0
-235 -228 -227 -210 -209 -207 0
-236 -229 -227 -211 -209 -207 0
-237 -230 -227 -212 -209 -207 0
-238 -229 -228 -211 -210 -207 0
-239 -230 -228 -212 -210 -207 0
-240 -230 -229 -212 -211 -207 0
-235 -232 -231 -210 -209 -208 0
-236 -233 -231 -211 -209 -208 0
-237 -234 -231 -212 -209 -208 0
-238 -233 -232 -211 -210 -208 0
-239 -234 -232 -212 -210 -208 0
-240 -234 -233 -212 -211 -208 0
-238 -236 -235 -211 -210 -209 0
-239 -237 -235 -212 -210 -209 0
-240 -237 -236 -212 -211 -209 0
-240 -239 -238 -212 -211 -210 0
-226 -221 -220 -215 -214 -213 0
-227 -222 -220 -216 -214 -213 0
-228 -223 -220 -217 -214 -213 0
-229 -224 -220 -218 -214 -213 0
-230 -225 -220 -219 -214 -213 0
-231 -222 -221 -216 -215 -213 0
-232 -223 -221 -217 -215 -213 0
-233 -224 -221 -218 -215 -213 0
-234 -225 -221 -219 -215 -213 0
-235 -223 -222 -217 -216 -213 0
-236 -224 -222 -218 -216 -213 0
-237 -225 -222 -219 -216 -213 0
-238 -224 -223 -218 -217 -213 0
-239 -225 -223 -219 -217 -213 0
-240 -225 -224 -219 -218 -213 0
-231 -227 -226 -216 -215 -214 0
-232 -228 -226 -217 -215 -214 0
-233 -229 -226 -218 -215 -214 0
-234 -230 -226 -219 -215 -214 0
-235 -228 -227 -217 -216 -214 0
-236 -229 -227 -218 -216 -214 0
-237 -230 -227 -219 -216 -214 0
-238 -229 -228 -218 -217 -214 0
-239 -230 -228 -219 -217 -214 0
-240 -230 -229 -219 -218 -214 0
-235 -232 -231 -217 -216 -215 0
-236 -233 -231 -218 -216 -215 0
-237 -234 -231 -219 -216 -215 0
-238 -233 -232 -218 -217 -215 0
-239 -234 -232 -219 -217 -215 0
-240 -234 -233 -219 -218 -215 0
-238 -236 -235 -218 -217 -216 0
-239 -237 -235 -219 -217 -216 0
-240 -237 -236 -219 -218 -216 0
-240 -239 -238 -219 -218 -217 0
-231 -227 -226 -222 -221 -220 0
-232 -228 -226 -223 -221 -220 0
-233 -229 -226 -224 -221 -220 0
-234 -230 -226 -225 -221 -220 0
-235 -228 -227 -223 -222 -220 0
-236 -229 -227 -224 -222 -220 0
-237 -230 -227 -225 -222 -220 0
-238 -229 -228 -224 -223 -220 0
-239 -230 -228 -225 -223 -220 0
-240 -230 -229 -225 -224 -220 0
-235 -232 -231 -223 -222 -221 0
-236 -233 -231 -224 -222 -221 0
-237 -234 -231 -225 -222 -221 0
-238 -233 -232 -224 -223 -221 0
-239 -234 -232 -225 -223 -221 0
-240 -234 -233 -225 -224 -221 0
-238 -236 -235 -224 -223 -222 0
-239 -237 -235 -225 -223 -222 0
-240 -237 -236 -225 -224 -222 0
-240 -239 -238 -225 -224 -223 0
-235 -232 -231 -228 -227 -226 0
-236 -233 -231 -229 -227 -226 0
-237 -234 -231 -230 -227 -226 0
-238 -233 -232 -229 -228 -226 0
-239 -234 -232 -230 -228 -226 0
-240 -234 -233 -230 -229 -226 0
-238 -236 -235 -229 -228 -227 0
-239 -237 -235 -230 -228 -227 0
-240 -237 -236 -230 -229 -227 0
-240 -239 -238 -230 -229 -228 0
-238 -236 -235 -233 -232 -231 0
-239 -237 -235 -234 -232 -231 0
-240 -237 -236 -234 -233 -231 0
-240 -239 -238 -234 -233 -232 0
-240 -239 -238 -237 -236 -235 0
126 6 0
-126 -6 0
125 5 0
-125 -5 0
124 4 0
-124 -4 0
129 9 0
-129 -9 0
132 12 0
-132 -12 0
135 15 0
-135 -15 0
138 18 0
-138 -18 0
141 21 0
-141 -21 0
144 24 0
-144 -24 0
147 27 0
-147 -27 0
150 30 0
-150 -30 0
153 33 0
-153 -33 0
156 36 0
-156 -36 0
159 39 0
-159 -39 0
162 42 0
-162 -42 0
123 3 0
-123 -3 0
122 2 0
-122 -2 0
128 8 0
-128 -8 0
131 11 0
-131 -11 0
134 14 0
-134 -14 0
137 17 0
-137 -17 0
140 20 0
-140 -20 0
143 23 0
-143 -23 0
146 26 0
-146 -26 0
149 29 0
-149 -29 0
152 32 0
-152 -32 0
155 35 0
-155 -35 0
158 38 0
-158 -38 0
161 41 0
-161 -41 0
121 1 0
-121 -1 0
127 7 0
-127 -7 0
130 10 0
-130 -10 0
133 13 0
-133 -13 0
136 16 0
-136 -16 0
139 19 0
-139 -19 0
142 22 0
-142 -22 0
145 25 0
-145 -25 0
148 28 0
-148 -28 0
151 31 0
-151 -31 0
154 34 0
-154 -34 0
157 37 0
-157 -37 0
160 40 0
-160 -40 0
163 43 0
-163 -43 0
164 44 0
-164 -44 0
165 45 0
-165 -45 0
166 46 0
-166 -46 0
167 47 0
-167 -47 0
168 48 0
-168 -48 0
169 49 0
-169 -49 0
170 50 0
-170 -50 0
171 51 0
-171 -51 0
172 52 0
-172 -52 0
173 53 0
-173 -53 0
174 54 0
-174 -54 0
175 55 0
-175 -55 0
176 56 0
-176 -56 0
177 57 0
-177 -57 0
178 58 0
-178 -58 0
179 59 0
-179 -59 0
180 60 0
-180 -60 0
181 61 0
-181 -61 0
182 62 0
-182 -62 0
183 63 0
-183 -63 0
184 64 0
-184 -64 0
185 65 0
-185 -65 0
186 66 0
-186 -66 0
187 67 0
-187 -67 0
188 68 0
-188 -68 0
189 69 0
-189 -69 0
190 70 0
-190 -70 0
191 71 0
-191 -71 0
192 72 0
-192 -72 0
193 73 0
-193 -73 0
194 74 0
-194 -74 0
195 75 0
-195 -75 0
196 76 0
-196 -76 0
197 77 0
-197 -77 0
198 78 0
-198 -78 0
199 79 0
-199 -79 0
200 80 0
-200 -80 0
201 81 0
-201 -81 0
202 82 0
-202 -82 0
203 83 0
-203 -83 0
204 84 0
-204 -84 0
205 85 0
-205 -85 0
206 86 0
-206 -86 0
207 87 0
-207 -87 0
208 88 0
-208 -88 0
209 89 0
-209 -89 0
210 90 0
-210 -90 0
211 91 0
-211 -91 0
212 92 0
-212 -92 0
213 93 0
-213 -93 0
214 94 0
-214 -94 0
215 95 0
-215 -95 0
216 96 0
-216 -96 0
217 97 0
-217 -97 0
218 98 0
-218 -98 0
219 99 0
-219 -99 0
220 100 0
-220 -100 0
221 101 0
-221 -101 0
222 102 0
-222 -102 0
223 103 0
-223 -103 0
224 104 0
-224 -104 0
225 105 0
-225 -105 0
226 106 0
-226 -106 0
227 107 0
-227 -107 0
228 108 0
-228 -108 0
229 109 0
-229 -109 0
230 110 0
-230 -110 0
231 111 0
-231 -111 0
232 112 0
-232 -112 0
233 113 0
-233 -113 0
234 114 0
-234 -114 0
235 115 0
-235 -115 0
236 116 0
-236 -116 0
237 117 0
-237 -117 0
238 118 0
-238 -118 0
239 119 0
-239 -119 0
240 120 0
-240 -120 0
