c P(5,4) is 6
c P(27,2) is 134
c P(26,3) is 130
c P(7,3) is 16
c P(17,1) is 73
c P(23,2) is 110
c P(19,4) is 90
c P(27,4) is 138
c P(16,1) is 67
c P(25,2) is 122
c P(27,3) is 136
c P(14,1) is 55
c P(15,1) is 61
c P(21,4) is 102
c P(25,1) is 121
c P(13,1) is 49
c P(12,2) is 44
c P(11,2) is 38
c P(30,2) is 152
c P(29,2) is 146
c P(22,4) is 108
c P(16,2) is 68
c P(5,2) is 2
c P(19,1) is 85
c P(29,4) is 150
c P(19,2) is 86
c P(10,3) is 34
c P(22,3) is 106
c P(5,1) is 1
c P(7,1) is 13
c P(24,2) is 116
c P(13,4) is 54
c P(21,3) is 100
c P(28,2) is 140
c P(9,4) is 30
c P(26,2) is 128
c P(8,1) is 19
c P(10,2) is 32
c P(23,3) is 112
c P(18,1) is 79
c P(17,2) is 74
c P(16,3) is 70
c P(12,4) is 48
c P(14,2) is 56
c P(29,3) is 148
c P(30,3) is 154
c P(18,3) is 82
c P(17,4) is 78
c P(13,3) is 52
c P(7,4) is 18
c P(17,3) is 76
c P(9,2) is 26
c P(18,2) is 80
c P(22,2) is 104
c P(13,2) is 50
c P(12,3) is 46
c P(15,4) is 66
c P(26,1) is 127
c P(29,1) is 145
c P(8,4) is 24
c P(20,1) is 91
c P(6,4) is 12
c P(8,3) is 22
c P(7,2) is 14
c P(28,1) is 139
c P(19,3) is 88
c P(30,4) is 156
c P(15,2) is 62
c P(20,4) is 96
c P(5,3) is 4
c P(10,1) is 31
c P(10,4) is 36
c P(18,4) is 84
c P(30,1) is 151
c P(24,4) is 120
c P(14,3) is 58
c P(11,3) is 40
c P(21,2) is 98
c P(20,2) is 92
c P(6,2) is 8
c P(23,1) is 109
c P(21,1) is 97
c P(28,3) is 142
c P(22,1) is 103
c P(9,1) is 25
c P(6,3) is 10
c P(14,4) is 60
c P(15,3) is 64
c P(11,4) is 42
c P(8,2) is 20
c P(27,1) is 133
c P(9,3) is 28
c P(28,4) is 144
c P(24,3) is 118
c P(26,4) is 132
c P(20,3) is 94
c P(11,1) is 37
c P(23,4) is 114
c P(12,1) is 43
c P(25,3) is 124
c P(25,4) is 126
c P(24,1) is 115
c P(16,4) is 72
c P(6,1) is 7
p cnf 2356 6867
1 2 -3 0
-1 3 0
-2 3 0
-1 -2 0
4 3 -5 0
-3 5 0
-4 5 0
-4 -3 0
6 5 0
-6 -5 0
7 8 -9 0
-7 9 0
-8 9 0
-7 -8 0
10 9 -11 0
-9 11 0
-10 11 0
-10 -9 0
12 11 0
-12 -11 0
13 14 -15 0
-13 15 0
-14 15 0
-13 -14 0
16 15 -17 0
-15 17 0
-16 17 0
-16 -15 0
18 17 0
-18 -17 0
19 20 -21 0
-19 21 0
-20 21 0
-19 -20 0
22 21 -23 0
-21 23 0
-22 23 0
-22 -21 0
24 23 0
-24 -23 0
25 26 -27 0
-25 27 0
-26 27 0
-25 -26 0
28 27 -29 0
-27 29 0
-28 29 0
-28 -27 0
30 29 0
-30 -29 0
31 32 -33 0
-31 33 0
-32 33 0
-31 -32 0
34 33 -35 0
-33 35 0
-34 35 0
-34 -33 0
36 35 0
-36 -35 0
37 38 -39 0
-37 39 0
-38 39 0
-37 -38 0
40 39 -41 0
-39 41 0
-40 41 0
-40 -39 0
42 41 0
-42 -41 0
43 44 -45 0
-43 45 0
-44 45 0
-43 -44 0
46 45 -47 0
-45 47 0
-46 47 0
-46 -45 0
48 47 0
-48 -47 0
49 50 -51 0
-49 51 0
-50 51 0
-49 -50 0
52 51 -53 0
-51 53 0
-52 53 0
-52 -51 0
54 53 0
-54 -53 0
55 56 -57 0
-55 57 0
-56 57 0
-55 -56 0
58 57 -59 0
-57 59 0
-58 59 0
-58 -57 0
60 59 0
-60 -59 0
61 62 -63 0
-61 63 0
-62 63 0
-61 -62 0
64 63 -65 0
-63 65 0
-64 65 0
-64 -63 0
66 65 0
-66 -65 0
67 68 -69 0
-67 69 0
-68 69 0
-67 -68 0
70 69 -71 0
-69 71 0
-70 71 0
-70 -69 0
72 71 0
-72 -71 0
73 74 -75 0
-73 75 0
-74 75 0
-73 -74 0
76 75 -77 0
-75 77 0
-76 77 0
-76 -75 0
78 77 0
-78 -77 0
79 80 -81 0
-79 81 0
-80 81 0
-79 -80 0
82 81 -83 0
-81 83 0
-82 83 0
-82 -81 0
84 83 0
-84 -83 0
85 86 -87 0
-85 87 0
-86 87 0
-85 -86 0
88 87 -89 0
-87 89 0
-88 89 0
-88 -87 0
90 89 0
-90 -89 0
91 92 -93 0
-91 93 0
-92 93 0
-91 -92 0
94 93 -95 0
-93 95 0
-94 95 0
-94 -93 0
96 95 0
-96 -95 0
97 98 -99 0
-97 99 0
-98 99 0
-97 -98 0
100 99 -101 0
-99 101 0
-100 101 0
-100 -99 0
102 101 0
-102 -101 0
103 104 -105 0
-103 105 0
-104 105 0
-103 -104 0
106 105 -107 0
-105 107 0
-106 107 0
-106 -105 0
108 107 0
-108 -107 0
109 110 -111 0
-109 111 0
-110 111 0
-109 -110 0
112 111 -113 0
-111 113 0
-112 113 0
-112 -111 0
114 113 0
-114 -113 0
115 116 -117 0
-115 117 0
-116 117 0
-115 -116 0
118 117 -119 0
-117 119 0
-118 119 0
-118 -117 0
120 119 0
-120 -119 0
121 122 -123 0
-121 123 0
-122 123 0
-121 -122 0
124 123 -125 0
-123 125 0
-124 125 0
-124 -123 0
126 125 0
-126 -125 0
127 128 -129 0
-127 129 0
-128 129 0
-127 -128 0
130 129 -131 0
-129 131 0
-130 131 0
-130 -129 0
132 131 0
-132 -131 0
133 134 -135 0
-133 135 0
-134 135 0
-133 -134 0
136 135 -137 0
-135 137 0
-136 137 0
-136 -135 0
138 137 0
-138 -137 0
139 140 -141 0
-139 141 0
-140 141 0
-139 -140 0
142 141 -143 0
-141 143 0
-142 143 0
-142 -141 0
144 143 0
-144 -143 0
145 146 -147 0
-145 147 0
-146 147 0
-145 -146 0
148 147 -149 0
-147 149 0
-148 149 0
-148 -147 0
150 149 0
-150 -149 0
151 152 -153 0
-151 153 0
-152 153 0
-151 -152 0
154 153 -155 0
-153 155 0
-154 155 0
-154 -153 0
156 155 0
-156 -155 0
-1 -8 157 0
1 -157 0
8 -157 0
-16 -157 158 0
157 -158 0
16 -158 0
-24 -158 159 0
158 -159 0
24 -159 0
-7 -14 160 0
7 -160 0
14 -160 0
-22 -160 161 0
160 -161 0
22 -161 0
-30 -161 162 0
161 -162 0
30 -162 0
-13 -20 163 0
13 -163 0
20 -163 0
-28 -163 164 0
163 -164 0
28 -164 0
-36 -164 165 0
164 -165 0
36 -165 0
-19 -26 166 0
19 -166 0
26 -166 0
-34 -166 167 0
166 -167 0
34 -167 0
-42 -167 168 0
167 -168 0
42 -168 0
-25 -32 169 0
25 -169 0
32 -169 0
-40 -169 170 0
169 -170 0
40 -170 0
-48 -170 171 0
170 -171 0
48 -171 0
-31 -38 172 0
31 -172 0
38 -172 0
-46 -172 173 0
172 -173 0
46 -173 0
-54 -173 174 0
173 -174 0
54 -174 0
-37 -44 175 0
37 -175 0
44 -175 0
-52 -175 176 0
175 -176 0
52 -176 0
-60 -176 177 0
176 -177 0
60 -177 0
-43 -50 178 0
43 -178 0
50 -178 0
-58 -178 179 0
178 -179 0
58 -179 0
-66 -179 180 0
179 -180 0
66 -180 0
-49 -56 181 0
49 -181 0
56 -181 0
-64 -181 182 0
181 -182 0
64 -182 0
-72 -182 183 0
182 -183 0
72 -183 0
-55 -62 184 0
55 -184 0
62 -184 0
-70 -184 185 0
184 -185 0
70 -185 0
-78 -185 186 0
185 -186 0
78 -186 0
-61 -68 187 0
61 -187 0
68 -187 0
-76 -187 188 0
187 -188 0
76 -188 0
-84 -188 189 0
188 -189 0
84 -189 0
-67 -74 190 0
67 -190 0
74 -190 0
-82 -190 191 0
190 -191 0
82 -191 0
-90 -191 192 0
191 -192 0
90 -192 0
-73 -80 193 0
73 -193 0
80 -193 0
-88 -193 194 0
193 -194 0
88 -194 0
-96 -194 195 0
194 -195 0
96 -195 0
-79 -86 196 0
79 -196 0
86 -196 0
-94 -196 197 0
196 -197 0
94 -197 0
-102 -197 198 0
197 -198 0
102 -198 0
-85 -92 199 0
85 -199 0
92 -199 0
-100 -199 200 0
199 -200 0
100 -200 0
-108 -200 201 0
200 -201 0
108 -201 0
-91 -98 202 0
91 -202 0
98 -202 0
-106 -202 203 0
202 -203 0
106 -203 0
-114 -203 204 0
203 -204 0
114 -204 0
-97 -104 205 0
97 -205 0
104 -205 0
-112 -205 206 0
205 -206 0
112 -206 0
-120 -206 207 0
206 -207 0
120 -207 0
-103 -110 208 0
103 -208 0
110 -208 0
-118 -208 209 0
208 -209 0
118 -209 0
-126 -209 210 0
209 -210 0
126 -210 0
-109 -116 211 0
109 -211 0
116 -211 0
-124 -211 212 0
211 -212 0
124 -212 0
-132 -212 213 0
212 -213 0
132 -213 0
-115 -122 214 0
115 -214 0
122 -214 0
-130 -214 215 0
214 -215 0
130 -215 0
-138 -215 216 0
215 -216 0
138 -216 0
-121 -128 217 0
121 -217 0
128 -217 0
-136 -217 218 0
217 -218 0
136 -218 0
-144 -218 219 0
218 -219 0
144 -219 0
-127 -134 220 0
127 -220 0
134 -220 0
-142 -220 221 0
220 -221 0
142 -221 0
-150 -221 222 0
221 -222 0
150 -222 0
-133 -140 223 0
133 -223 0
140 -223 0
-148 -223 224 0
223 -224 0
148 -224 0
-156 -224 225 0
224 -225 0
156 -225 0
222 225 -226 0
-225 226 0
-222 226 0
219 226 -227 0
-226 227 0
-219 227 0
216 227 -228 0
-227 228 0
-216 228 0
213 228 -229 0
-228 229 0
-213 229 0
210 229 -230 0
-229 230 0
-210 230 0
207 230 -231 0
-230 231 0
-207 231 0
204 231 -232 0
-231 232 0
-204 232 0
201 232 -233 0
-232 233 0
-201 233 0
198 233 -234 0
-233 234 0
-198 234 0
195 234 -235 0
-234 235 0
-195 235 0
192 235 -236 0
-235 236 0
-192 236 0
189 236 -237 0
-236 237 0
-189 237 0
186 237 -238 0
-237 238 0
-186 238 0
183 238 -239 0
-238 239 0
-183 239 0
180 239 -240 0
-239 240 0
-180 240 0
177 240 -241 0
-240 241 0
-177 241 0
174 241 -242 0
-241 242 0
-174 242 0
171 242 -243 0
-242 243 0
-171 243 0
168 243 -244 0
-243 244 0
-168 244 0
165 244 -245 0
-244 245 0
-165 245 0
162 245 -246 0
-245 246 0
-162 246 0
159 246 -247 0
-246 247 0
-159 247 0
247 -248 0
-247 248 0
248 -249 0
-248 249 0
249 -250 0
-249 250 0
-1 -8 251 0
1 -251 0
8 -251 0
-18 -251 252 0
251 -252 0
18 -252 0
-22 -252 253 0
252 -253 0
22 -253 0
-7 -14 254 0
7 -254 0
14 -254 0
-24 -254 255 0
254 -255 0
24 -255 0
-28 -255 256 0
255 -256 0
28 -256 0
-13 -20 257 0
13 -257 0
20 -257 0
-30 -257 258 0
257 -258 0
30 -258 0
-34 -258 259 0
258 -259 0
34 -259 0
-19 -26 260 0
19 -260 0
26 -260 0
-36 -260 261 0
260 -261 0
36 -261 0
-40 -261 262 0
261 -262 0
40 -262 0
-25 -32 263 0
25 -263 0
32 -263 0
-42 -263 264 0
263 -264 0
42 -264 0
-46 -264 265 0
264 -265 0
46 -265 0
-31 -38 266 0
31 -266 0
38 -266 0
-48 -266 267 0
266 -267 0
48 -267 0
-52 -267 268 0
267 -268 0
52 -268 0
-37 -44 269 0
37 -269 0
44 -269 0
-54 -269 270 0
269 -270 0
54 -270 0
-58 -270 271 0
270 -271 0
58 -271 0
-43 -50 272 0
43 -272 0
50 -272 0
-60 -272 273 0
272 -273 0
60 -273 0
-64 -273 274 0
273 -274 0
64 -274 0
-49 -56 275 0
49 -275 0
56 -275 0
-66 -275 276 0
275 -276 0
66 -276 0
-70 -276 277 0
276 -277 0
70 -277 0
-55 -62 278 0
55 -278 0
62 -278 0
-72 -278 279 0
278 -279 0
72 -279 0
-76 -279 280 0
279 -280 0
76 -280 0
-61 -68 281 0
61 -281 0
68 -281 0
-78 -281 282 0
281 -282 0
78 -282 0
-82 -282 283 0
282 -283 0
82 -283 0
-67 -74 284 0
67 -284 0
74 -284 0
-84 -284 285 0
284 -285 0
84 -285 0
-88 -285 286 0
285 -286 0
88 -286 0
-73 -80 287 0
73 -287 0
80 -287 0
-90 -287 288 0
287 -288 0
90 -288 0
-94 -288 289 0
288 -289 0
94 -289 0
-79 -86 290 0
79 -290 0
86 -290 0
-96 -290 291 0
290 -291 0
96 -291 0
-100 -291 292 0
291 -292 0
100 -292 0
-85 -92 293 0
85 -293 0
92 -293 0
-102 -293 294 0
293 -294 0
102 -294 0
-106 -294 295 0
294 -295 0
106 -295 0
-91 -98 296 0
91 -296 0
98 -296 0
-108 -296 297 0
296 -297 0
108 -297 0
-112 -297 298 0
297 -298 0
112 -298 0
-97 -104 299 0
97 -299 0
104 -299 0
-114 -299 300 0
299 -300 0
114 -300 0
-118 -300 301 0
300 -301 0
118 -301 0
-103 -110 302 0
103 -302 0
110 -302 0
-120 -302 303 0
302 -303 0
120 -303 0
-124 -303 304 0
303 -304 0
124 -304 0
-109 -116 305 0
109 -305 0
116 -305 0
-126 -305 306 0
305 -306 0
126 -306 0
-130 -306 307 0
306 -307 0
130 -307 0
-115 -122 308 0
115 -308 0
122 -308 0
-132 -308 309 0
308 -309 0
132 -309 0
-136 -309 310 0
309 -310 0
136 -310 0
-121 -128 311 0
121 -311 0
128 -311 0
-138 -311 312 0
311 -312 0
138 -312 0
-142 -312 313 0
312 -313 0
142 -313 0
-127 -134 314 0
127 -314 0
134 -314 0
-144 -314 315 0
314 -315 0
144 -315 0
-148 -315 316 0
315 -316 0
148 -316 0
-133 -140 317 0
133 -317 0
140 -317 0
-150 -317 318 0
317 -318 0
150 -318 0
-154 -318 319 0
318 -319 0
154 -319 0
316 319 -320 0
-319 320 0
-316 320 0
313 320 -321 0
-320 321 0
-313 321 0
310 321 -322 0
-321 322 0
-310 322 0
307 322 -323 0
-322 323 0
-307 323 0
304 323 -324 0
-323 324 0
-304 324 0
301 324 -325 0
-324 325 0
-301 325 0
298 325 -326 0
-325 326 0
-298 326 0
295 326 -327 0
-326 327 0
-295 327 0
292 327 -328 0
-327 328 0
-292 328 0
289 328 -329 0
-328 329 0
-289 329 0
286 329 -330 0
-329 330 0
-286 330 0
283 330 -331 0
-330 331 0
-283 331 0
280 331 -332 0
-331 332 0
-280 332 0
277 332 -333 0
-332 333 0
-277 333 0
274 333 -334 0
-333 334 0
-274 334 0
271 334 -335 0
-334 335 0
-271 335 0
268 335 -336 0
-335 336 0
-268 336 0
265 336 -337 0
-336 337 0
-265 337 0
262 337 -338 0
-337 338 0
-262 338 0
259 338 -339 0
-338 339 0
-259 339 0
256 339 -340 0
-339 340 0
-256 340 0
253 340 0
-1 -10 341 0
1 -341 0
10 -341 0
-14 -341 342 0
341 -342 0
14 -342 0
-24 -342 343 0
342 -343 0
24 -343 0
-7 -16 344 0
7 -344 0
16 -344 0
-20 -344 345 0
344 -345 0
20 -345 0
-30 -345 346 0
345 -346 0
30 -346 0
-13 -22 347 0
13 -347 0
22 -347 0
-26 -347 348 0
347 -348 0
26 -348 0
-36 -348 349 0
348 -349 0
36 -349 0
-19 -28 350 0
19 -350 0
28 -350 0
-32 -350 351 0
350 -351 0
32 -351 0
-42 -351 352 0
351 -352 0
42 -352 0
-25 -34 353 0
25 -353 0
34 -353 0
-38 -353 354 0
353 -354 0
38 -354 0
-48 -354 355 0
354 -355 0
48 -355 0
-31 -40 356 0
31 -356 0
40 -356 0
-44 -356 357 0
356 -357 0
44 -357 0
-54 -357 358 0
357 -358 0
54 -358 0
-37 -46 359 0
37 -359 0
46 -359 0
-50 -359 360 0
359 -360 0
50 -360 0
-60 -360 361 0
360 -361 0
60 -361 0
-43 -52 362 0
43 -362 0
52 -362 0
-56 -362 363 0
362 -363 0
56 -363 0
-66 -363 364 0
363 -364 0
66 -364 0
-49 -58 365 0
49 -365 0
58 -365 0
-62 -365 366 0
365 -366 0
62 -366 0
-72 -366 367 0
366 -367 0
72 -367 0
-55 -64 368 0
55 -368 0
64 -368 0
-68 -368 369 0
368 -369 0
68 -369 0
-78 -369 370 0
369 -370 0
78 -370 0
-61 -70 371 0
61 -371 0
70 -371 0
-74 -371 372 0
371 -372 0
74 -372 0
-84 -372 373 0
372 -373 0
84 -373 0
-67 -76 374 0
67 -374 0
76 -374 0
-80 -374 375 0
374 -375 0
80 -375 0
-90 -375 376 0
375 -376 0
90 -376 0
-73 -82 377 0
73 -377 0
82 -377 0
-86 -377 378 0
377 -378 0
86 -378 0
-96 -378 379 0
378 -379 0
96 -379 0
-79 -88 380 0
79 -380 0
88 -380 0
-92 -380 381 0
380 -381 0
92 -381 0
-102 -381 382 0
381 -382 0
102 -382 0
-85 -94 383 0
85 -383 0
94 -383 0
-98 -383 384 0
383 -384 0
98 -384 0
-108 -384 385 0
384 -385 0
108 -385 0
-91 -100 386 0
91 -386 0
100 -386 0
-104 -386 387 0
386 -387 0
104 -387 0
-114 -387 388 0
387 -388 0
114 -388 0
-97 -106 389 0
97 -389 0
106 -389 0
-110 -389 390 0
389 -390 0
110 -390 0
-120 -390 391 0
390 -391 0
120 -391 0
-103 -112 392 0
103 -392 0
112 -392 0
-116 -392 393 0
392 -393 0
116 -393 0
-126 -393 394 0
393 -394 0
126 -394 0
-109 -118 395 0
109 -395 0
118 -395 0
-122 -395 396 0
395 -396 0
122 -396 0
-132 -396 397 0
396 -397 0
132 -397 0
-115 -124 398 0
115 -398 0
124 -398 0
-128 -398 399 0
398 -399 0
128 -399 0
-138 -399 400 0
399 -400 0
138 -400 0
-121 -130 401 0
121 -401 0
130 -401 0
-134 -401 402 0
401 -402 0
134 -402 0
-144 -402 403 0
402 -403 0
144 -403 0
-127 -136 404 0
127 -404 0
136 -404 0
-140 -404 405 0
404 -405 0
140 -405 0
-150 -405 406 0
405 -406 0
150 -406 0
-133 -142 407 0
133 -407 0
142 -407 0
-146 -407 408 0
407 -408 0
146 -408 0
-156 -408 409 0
408 -409 0
156 -409 0
406 409 -410 0
-409 410 0
-406 410 0
403 410 -411 0
-410 411 0
-403 411 0
400 411 -412 0
-411 412 0
-400 412 0
397 412 -413 0
-412 413 0
-397 413 0
394 413 -414 0
-413 414 0
-394 414 0
391 414 -415 0
-414 415 0
-391 415 0
388 415 -416 0
-415 416 0
-388 416 0
385 416 -417 0
-416 417 0
-385 417 0
382 417 -418 0
-417 418 0
-382 418 0
379 418 -419 0
-418 419 0
-379 419 0
376 419 -420 0
-419 420 0
-376 420 0
373 420 -421 0
-420 421 0
-373 421 0
370 421 -422 0
-421 422 0
-370 422 0
367 422 -423 0
-422 423 0
-367 423 0
364 423 -424 0
-423 424 0
-364 424 0
361 424 -425 0
-424 425 0
-361 425 0
358 425 -426 0
-425 426 0
-358 426 0
355 426 -427 0
-426 427 0
-355 427 0
352 427 -428 0
-427 428 0
-352 428 0
349 428 -429 0
-428 429 0
-349 429 0
346 429 -430 0
-429 430 0
-346 430 0
343 430 0
-1 -10 431 0
1 -431 0
10 -431 0
-18 -431 432 0
431 -432 0
18 -432 0
-20 -432 433 0
432 -433 0
20 -433 0
-7 -16 434 0
7 -434 0
16 -434 0
-24 -434 435 0
434 -435 0
24 -435 0
-26 -435 436 0
435 -436 0
26 -436 0
-13 -22 437 0
13 -437 0
22 -437 0
-30 -437 438 0
437 -438 0
30 -438 0
-32 -438 439 0
438 -439 0
32 -439 0
-19 -28 440 0
19 -440 0
28 -440 0
-36 -440 441 0
440 -441 0
36 -441 0
-38 -441 442 0
441 -442 0
38 -442 0
-25 -34 443 0
25 -443 0
34 -443 0
-42 -443 444 0
443 -444 0
42 -444 0
-44 -444 445 0
444 -445 0
44 -445 0
-31 -40 446 0
31 -446 0
40 -446 0
-48 -446 447 0
446 -447 0
48 -447 0
-50 -447 448 0
447 -448 0
50 -448 0
-37 -46 449 0
37 -449 0
46 -449 0
-54 -449 450 0
449 -450 0
54 -450 0
-56 -450 451 0
450 -451 0
56 -451 0
-43 -52 452 0
43 -452 0
52 -452 0
-60 -452 453 0
452 -453 0
60 -453 0
-62 -453 454 0
453 -454 0
62 -454 0
-49 -58 455 0
49 -455 0
58 -455 0
-66 -455 456 0
455 -456 0
66 -456 0
-68 -456 457 0
456 -457 0
68 -457 0
-55 -64 458 0
55 -458 0
64 -458 0
-72 -458 459 0
458 -459 0
72 -459 0
-74 -459 460 0
459 -460 0
74 -460 0
-61 -70 461 0
61 -461 0
70 -461 0
-78 -461 462 0
461 -462 0
78 -462 0
-80 -462 463 0
462 -463 0
80 -463 0
-67 -76 464 0
67 -464 0
76 -464 0
-84 -464 465 0
464 -465 0
84 -465 0
-86 -465 466 0
465 -466 0
86 -466 0
-73 -82 467 0
73 -467 0
82 -467 0
-90 -467 468 0
467 -468 0
90 -468 0
-92 -468 469 0
468 -469 0
92 -469 0
-79 -88 470 0
79 -470 0
88 -470 0
-96 -470 471 0
470 -471 0
96 -471 0
-98 -471 472 0
471 -472 0
98 -472 0
-85 -94 473 0
85 -473 0
94 -473 0
-102 -473 474 0
473 -474 0
102 -474 0
-104 -474 475 0
474 -475 0
104 -475 0
-91 -100 476 0
91 -476 0
100 -476 0
-108 -476 477 0
476 -477 0
108 -477 0
-110 -477 478 0
477 -478 0
110 -478 0
-97 -106 479 0
97 -479 0
106 -479 0
-114 -479 480 0
479 -480 0
114 -480 0
-116 -480 481 0
480 -481 0
116 -481 0
-103 -112 482 0
103 -482 0
112 -482 0
-120 -482 483 0
482 -483 0
120 -483 0
-122 -483 484 0
483 -484 0
122 -484 0
-109 -118 485 0
109 -485 0
118 -485 0
-126 -485 486 0
485 -486 0
126 -486 0
-128 -486 487 0
486 -487 0
128 -487 0
-115 -124 488 0
115 -488 0
124 -488 0
-132 -488 489 0
488 -489 0
132 -489 0
-134 -489 490 0
489 -490 0
134 -490 0
-121 -130 491 0
121 -491 0
130 -491 0
-138 -491 492 0
491 -492 0
138 -492 0
-140 -492 493 0
492 -493 0
140 -493 0
-127 -136 494 0
127 -494 0
136 -494 0
-144 -494 495 0
494 -495 0
144 -495 0
-146 -495 496 0
495 -496 0
146 -496 0
-133 -142 497 0
133 -497 0
142 -497 0
-150 -497 498 0
497 -498 0
150 -498 0
-152 -498 499 0
498 -499 0
152 -499 0
496 499 -500 0
-499 500 0
-496 500 0
493 500 -501 0
-500 501 0
-493 501 0
490 501 -502 0
-501 502 0
-490 502 0
487 502 -503 0
-502 503 0
-487 503 0
484 503 -504 0
-503 504 0
-484 504 0
481 504 -505 0
-504 505 0
-481 505 0
478 505 -506 0
-505 506 0
-478 506 0
475 506 -507 0
-506 507 0
-475 507 0
472 507 -508 0
-507 508 0
-472 508 0
469 508 -509 0
-508 509 0
-469 509 0
466 509 -510 0
-509 510 0
-466 510 0
463 510 -511 0
-510 511 0
-463 511 0
460 511 -512 0
-511 512 0
-460 512 0
457 512 -513 0
-512 513 0
-457 513 0
454 513 -514 0
-513 514 0
-454 514 0
451 514 -515 0
-514 515 0
-451 515 0
448 515 -516 0
-515 516 0
-448 516 0
445 516 -517 0
-516 517 0
-445 517 0
442 517 -518 0
-517 518 0
-442 518 0
439 518 -519 0
-518 519 0
-439 519 0
436 519 -520 0
-519 520 0
-436 520 0
433 520 0
-1 -12 521 0
1 -521 0
12 -521 0
-14 -521 522 0
521 -522 0
14 -522 0
-22 -522 523 0
522 -523 0
22 -523 0
-7 -18 524 0
7 -524 0
18 -524 0
-20 -524 525 0
524 -525 0
20 -525 0
-28 -525 526 0
525 -526 0
28 -526 0
-13 -24 527 0
13 -527 0
24 -527 0
-26 -527 528 0
527 -528 0
26 -528 0
-34 -528 529 0
528 -529 0
34 -529 0
-19 -30 530 0
19 -530 0
30 -530 0
-32 -530 531 0
530 -531 0
32 -531 0
-40 -531 532 0
531 -532 0
40 -532 0
-25 -36 533 0
25 -533 0
36 -533 0
-38 -533 534 0
533 -534 0
38 -534 0
-46 -534 535 0
534 -535 0
46 -535 0
-31 -42 536 0
31 -536 0
42 -536 0
-44 -536 537 0
536 -537 0
44 -537 0
-52 -537 538 0
537 -538 0
52 -538 0
-37 -48 539 0
37 -539 0
48 -539 0
-50 -539 540 0
539 -540 0
50 -540 0
-58 -540 541 0
540 -541 0
58 -541 0
-43 -54 542 0
43 -542 0
54 -542 0
-56 -542 543 0
542 -543 0
56 -543 0
-64 -543 544 0
543 -544 0
64 -544 0
-49 -60 545 0
49 -545 0
60 -545 0
-62 -545 546 0
545 -546 0
62 -546 0
-70 -546 547 0
546 -547 0
70 -547 0
-55 -66 548 0
55 -548 0
66 -548 0
-68 -548 549 0
548 -549 0
68 -549 0
-76 -549 550 0
549 -550 0
76 -550 0
-61 -72 551 0
61 -551 0
72 -551 0
-74 -551 552 0
551 -552 0
74 -552 0
-82 -552 553 0
552 -553 0
82 -553 0
-67 -78 554 0
67 -554 0
78 -554 0
-80 -554 555 0
554 -555 0
80 -555 0
-88 -555 556 0
555 -556 0
88 -556 0
-73 -84 557 0
73 -557 0
84 -557 0
-86 -557 558 0
557 -558 0
86 -558 0
-94 -558 559 0
558 -559 0
94 -559 0
-79 -90 560 0
79 -560 0
90 -560 0
-92 -560 561 0
560 -561 0
92 -561 0
-100 -561 562 0
561 -562 0
100 -562 0
-85 -96 563 0
85 -563 0
96 -563 0
-98 -563 564 0
563 -564 0
98 -564 0
-106 -564 565 0
564 -565 0
106 -565 0
-91 -102 566 0
91 -566 0
102 -566 0
-104 -566 567 0
566 -567 0
104 -567 0
-112 -567 568 0
567 -568 0
112 -568 0
-97 -108 569 0
97 -569 0
108 -569 0
-110 -569 570 0
569 -570 0
110 -570 0
-118 -570 571 0
570 -571 0
118 -571 0
-103 -114 572 0
103 -572 0
114 -572 0
-116 -572 573 0
572 -573 0
116 -573 0
-124 -573 574 0
573 -574 0
124 -574 0
-109 -120 575 0
109 -575 0
120 -575 0
-122 -575 576 0
575 -576 0
122 -576 0
-130 -576 577 0
576 -577 0
130 -577 0
-115 -126 578 0
115 -578 0
126 -578 0
-128 -578 579 0
578 -579 0
128 -579 0
-136 -579 580 0
579 -580 0
136 -580 0
-121 -132 581 0
121 -581 0
132 -581 0
-134 -581 582 0
581 -582 0
134 -582 0
-142 -582 583 0
582 -583 0
142 -583 0
-127 -138 584 0
127 -584 0
138 -584 0
-140 -584 585 0
584 -585 0
140 -585 0
-148 -585 586 0
585 -586 0
148 -586 0
-133 -144 587 0
133 -587 0
144 -587 0
-146 -587 588 0
587 -588 0
146 -588 0
-154 -588 589 0
588 -589 0
154 -589 0
586 589 -590 0
-589 590 0
-586 590 0
583 590 -591 0
-590 591 0
-583 591 0
580 591 -592 0
-591 592 0
-580 592 0
577 592 -593 0
-592 593 0
-577 593 0
574 593 -594 0
-593 594 0
-574 594 0
571 594 -595 0
-594 595 0
-571 595 0
568 595 -596 0
-595 596 0
-568 596 0
565 596 -597 0
-596 597 0
-565 597 0
562 597 -598 0
-597 598 0
-562 598 0
559 598 -599 0
-598 599 0
-559 599 0
556 599 -600 0
-599 600 0
-556 600 0
553 600 -601 0
-600 601 0
-553 601 0
550 601 -602 0
-601 602 0
-550 602 0
547 602 -603 0
-602 603 0
-547 603 0
544 603 -604 0
-603 604 0
-544 604 0
541 604 -605 0
-604 605 0
-541 605 0
538 605 -606 0
-605 606 0
-538 606 0
535 606 -607 0
-606 607 0
-535 607 0
532 607 -608 0
-607 608 0
-532 608 0
529 608 -609 0
-608 609 0
-529 609 0
526 609 -610 0
-609 610 0
-526 610 0
523 610 0
-1 -12 611 0
1 -611 0
12 -611 0
-16 -611 612 0
611 -612 0
16 -612 0
-20 -612 613 0
612 -613 0
20 -613 0
-7 -18 614 0
7 -614 0
18 -614 0
-22 -614 615 0
614 -615 0
22 -615 0
-26 -615 616 0
615 -616 0
26 -616 0
-13 -24 617 0
13 -617 0
24 -617 0
-28 -617 618 0
617 -618 0
28 -618 0
-32 -618 619 0
618 -619 0
32 -619 0
-19 -30 620 0
19 -620 0
30 -620 0
-34 -620 621 0
620 -621 0
34 -621 0
-38 -621 622 0
621 -622 0
38 -622 0
-25 -36 623 0
25 -623 0
36 -623 0
-40 -623 624 0
623 -624 0
40 -624 0
-44 -624 625 0
624 -625 0
44 -625 0
-31 -42 626 0
31 -626 0
42 -626 0
-46 -626 627 0
626 -627 0
46 -627 0
-50 -627 628 0
627 -628 0
50 -628 0
-37 -48 629 0
37 -629 0
48 -629 0
-52 -629 630 0
629 -630 0
52 -630 0
-56 -630 631 0
630 -631 0
56 -631 0
-43 -54 632 0
43 -632 0
54 -632 0
-58 -632 633 0
632 -633 0
58 -633 0
-62 -633 634 0
633 -634 0
62 -634 0
-49 -60 635 0
49 -635 0
60 -635 0
-64 -635 636 0
635 -636 0
64 -636 0
-68 -636 637 0
636 -637 0
68 -637 0
-55 -66 638 0
55 -638 0
66 -638 0
-70 -638 639 0
638 -639 0
70 -639 0
-74 -639 640 0
639 -640 0
74 -640 0
-61 -72 641 0
61 -641 0
72 -641 0
-76 -641 642 0
641 -642 0
76 -642 0
-80 -642 643 0
642 -643 0
80 -643 0
-67 -78 644 0
67 -644 0
78 -644 0
-82 -644 645 0
644 -645 0
82 -645 0
-86 -645 646 0
645 -646 0
86 -646 0
-73 -84 647 0
73 -647 0
84 -647 0
-88 -647 648 0
647 -648 0
88 -648 0
-92 -648 649 0
648 -649 0
92 -649 0
-79 -90 650 0
79 -650 0
90 -650 0
-94 -650 651 0
650 -651 0
94 -651 0
-98 -651 652 0
651 -652 0
98 -652 0
-85 -96 653 0
85 -653 0
96 -653 0
-100 -653 654 0
653 -654 0
100 -654 0
-104 -654 655 0
654 -655 0
104 -655 0
-91 -102 656 0
91 -656 0
102 -656 0
-106 -656 657 0
656 -657 0
106 -657 0
-110 -657 658 0
657 -658 0
110 -658 0
-97 -108 659 0
97 -659 0
108 -659 0
-112 -659 660 0
659 -660 0
112 -660 0
-116 -660 661 0
660 -661 0
116 -661 0
-103 -114 662 0
103 -662 0
114 -662 0
-118 -662 663 0
662 -663 0
118 -663 0
-122 -663 664 0
663 -664 0
122 -664 0
-109 -120 665 0
109 -665 0
120 -665 0
-124 -665 666 0
665 -666 0
124 -666 0
-128 -666 667 0
666 -667 0
128 -667 0
-115 -126 668 0
115 -668 0
126 -668 0
-130 -668 669 0
668 -669 0
130 -669 0
-134 -669 670 0
669 -670 0
134 -670 0
-121 -132 671 0
121 -671 0
132 -671 0
-136 -671 672 0
671 -672 0
136 -672 0
-140 -672 673 0
672 -673 0
140 -673 0
-127 -138 674 0
127 -674 0
138 -674 0
-142 -674 675 0
674 -675 0
142 -675 0
-146 -675 676 0
675 -676 0
146 -676 0
-133 -144 677 0
133 -677 0
144 -677 0
-148 -677 678 0
677 -678 0
148 -678 0
-152 -678 679 0
678 -679 0
152 -679 0
676 679 -680 0
-679 680 0
-676 680 0
673 680 -681 0
-680 681 0
-673 681 0
670 681 -682 0
-681 682 0
-670 682 0
667 682 -683 0
-682 683 0
-667 683 0
664 683 -684 0
-683 684 0
-664 684 0
661 684 -685 0
-684 685 0
-661 685 0
658 685 -686 0
-685 686 0
-658 686 0
655 686 -687 0
-686 687 0
-655 687 0
652 687 -688 0
-687 688 0
-652 688 0
649 688 -689 0
-688 689 0
-649 689 0
646 689 -690 0
-689 690 0
-646 690 0
643 690 -691 0
-690 691 0
-643 691 0
640 691 -692 0
-691 692 0
-640 692 0
637 692 -693 0
-692 693 0
-637 693 0
634 693 -694 0
-693 694 0
-634 694 0
631 694 -695 0
-694 695 0
-631 695 0
628 695 -696 0
-695 696 0
-628 696 0
625 696 -697 0
-696 697 0
-625 697 0
622 697 -698 0
-697 698 0
-622 698 0
619 698 -699 0
-698 699 0
-619 699 0
616 699 -700 0
-699 700 0
-616 700 0
613 700 0
-2 -7 701 0
2 -701 0
7 -701 0
-16 -701 702 0
701 -702 0
16 -702 0
-24 -702 703 0
702 -703 0
24 -703 0
-8 -13 704 0
8 -704 0
13 -704 0
-22 -704 705 0
704 -705 0
22 -705 0
-30 -705 706 0
705 -706 0
30 -706 0
-14 -19 707 0
14 -707 0
19 -707 0
-28 -707 708 0
707 -708 0
28 -708 0
-36 -708 709 0
708 -709 0
36 -709 0
-20 -25 710 0
20 -710 0
25 -710 0
-34 -710 711 0
710 -711 0
34 -711 0
-42 -711 712 0
711 -712 0
42 -712 0
-26 -31 713 0
26 -713 0
31 -713 0
-40 -713 714 0
713 -714 0
40 -714 0
-48 -714 715 0
714 -715 0
48 -715 0
-32 -37 716 0
32 -716 0
37 -716 0
-46 -716 717 0
716 -717 0
46 -717 0
-54 -717 718 0
717 -718 0
54 -718 0
-38 -43 719 0
38 -719 0
43 -719 0
-52 -719 720 0
719 -720 0
52 -720 0
-60 -720 721 0
720 -721 0
60 -721 0
-44 -49 722 0
44 -722 0
49 -722 0
-58 -722 723 0
722 -723 0
58 -723 0
-66 -723 724 0
723 -724 0
66 -724 0
-50 -55 725 0
50 -725 0
55 -725 0
-64 -725 726 0
725 -726 0
64 -726 0
-72 -726 727 0
726 -727 0
72 -727 0
-56 -61 728 0
56 -728 0
61 -728 0
-70 -728 729 0
728 -729 0
70 -729 0
-78 -729 730 0
729 -730 0
78 -730 0
-62 -67 731 0
62 -731 0
67 -731 0
-76 -731 732 0
731 -732 0
76 -732 0
-84 -732 733 0
732 -733 0
84 -733 0
-68 -73 734 0
68 -734 0
73 -734 0
-82 -734 735 0
734 -735 0
82 -735 0
-90 -735 736 0
735 -736 0
90 -736 0
-74 -79 737 0
74 -737 0
79 -737 0
-88 -737 738 0
737 -738 0
88 -738 0
-96 -738 739 0
738 -739 0
96 -739 0
-80 -85 740 0
80 -740 0
85 -740 0
-94 -740 741 0
740 -741 0
94 -741 0
-102 -741 742 0
741 -742 0
102 -742 0
-86 -91 743 0
86 -743 0
91 -743 0
-100 -743 744 0
743 -744 0
100 -744 0
-108 -744 745 0
744 -745 0
108 -745 0
-92 -97 746 0
92 -746 0
97 -746 0
-106 -746 747 0
746 -747 0
106 -747 0
-114 -747 748 0
747 -748 0
114 -748 0
-98 -103 749 0
98 -749 0
103 -749 0
-112 -749 750 0
749 -750 0
112 -750 0
-120 -750 751 0
750 -751 0
120 -751 0
-104 -109 752 0
104 -752 0
109 -752 0
-118 -752 753 0
752 -753 0
118 -753 0
-126 -753 754 0
753 -754 0
126 -754 0
-110 -115 755 0
110 -755 0
115 -755 0
-124 -755 756 0
755 -756 0
124 -756 0
-132 -756 757 0
756 -757 0
132 -757 0
-116 -121 758 0
116 -758 0
121 -758 0
-130 -758 759 0
758 -759 0
130 -759 0
-138 -759 760 0
759 -760 0
138 -760 0
-122 -127 761 0
122 -761 0
127 -761 0
-136 -761 762 0
761 -762 0
136 -762 0
-144 -762 763 0
762 -763 0
144 -763 0
-128 -133 764 0
128 -764 0
133 -764 0
-142 -764 765 0
764 -765 0
142 -765 0
-150 -765 766 0
765 -766 0
150 -766 0
-134 -139 767 0
134 -767 0
139 -767 0
-148 -767 768 0
767 -768 0
148 -768 0
-156 -768 769 0
768 -769 0
156 -769 0
766 769 -770 0
-769 770 0
-766 770 0
763 770 -771 0
-770 771 0
-763 771 0
760 771 -772 0
-771 772 0
-760 772 0
757 772 -773 0
-772 773 0
-757 773 0
754 773 -774 0
-773 774 0
-754 774 0
751 774 -775 0
-774 775 0
-751 775 0
748 775 -776 0
-775 776 0
-748 776 0
745 776 -777 0
-776 777 0
-745 777 0
742 777 -778 0
-777 778 0
-742 778 0
739 778 -779 0
-778 779 0
-739 779 0
736 779 -780 0
-779 780 0
-736 780 0
733 780 -781 0
-780 781 0
-733 781 0
730 781 -782 0
-781 782 0
-730 782 0
727 782 -783 0
-782 783 0
-727 783 0
724 783 -784 0
-783 784 0
-724 784 0
721 784 -785 0
-784 785 0
-721 785 0
718 785 -786 0
-785 786 0
-718 786 0
715 786 -787 0
-786 787 0
-715 787 0
712 787 -788 0
-787 788 0
-712 788 0
709 788 -789 0
-788 789 0
-709 789 0
706 789 -790 0
-789 790 0
-706 790 0
703 790 0
-2 -7 791 0
2 -791 0
7 -791 0
-18 -791 792 0
791 -792 0
18 -792 0
-22 -792 793 0
792 -793 0
22 -793 0
-8 -13 794 0
8 -794 0
13 -794 0
-24 -794 795 0
794 -795 0
24 -795 0
-28 -795 796 0
795 -796 0
28 -796 0
-14 -19 797 0
14 -797 0
19 -797 0
-30 -797 798 0
797 -798 0
30 -798 0
-34 -798 799 0
798 -799 0
34 -799 0
-20 -25 800 0
20 -800 0
25 -800 0
-36 -800 801 0
800 -801 0
36 -801 0
-40 -801 802 0
801 -802 0
40 -802 0
-26 -31 803 0
26 -803 0
31 -803 0
-42 -803 804 0
803 -804 0
42 -804 0
-46 -804 805 0
804 -805 0
46 -805 0
-32 -37 806 0
32 -806 0
37 -806 0
-48 -806 807 0
806 -807 0
48 -807 0
-52 -807 808 0
807 -808 0
52 -808 0
-38 -43 809 0
38 -809 0
43 -809 0
-54 -809 810 0
809 -810 0
54 -810 0
-58 -810 811 0
810 -811 0
58 -811 0
-44 -49 812 0
44 -812 0
49 -812 0
-60 -812 813 0
812 -813 0
60 -813 0
-64 -813 814 0
813 -814 0
64 -814 0
-50 -55 815 0
50 -815 0
55 -815 0
-66 -815 816 0
815 -816 0
66 -816 0
-70 -816 817 0
816 -817 0
70 -817 0
-56 -61 818 0
56 -818 0
61 -818 0
-72 -818 819 0
818 -819 0
72 -819 0
-76 -819 820 0
819 -820 0
76 -820 0
-62 -67 821 0
62 -821 0
67 -821 0
-78 -821 822 0
821 -822 0
78 -822 0
-82 -822 823 0
822 -823 0
82 -823 0
-68 -73 824 0
68 -824 0
73 -824 0
-84 -824 825 0
824 -825 0
84 -825 0
-88 -825 826 0
825 -826 0
88 -826 0
-74 -79 827 0
74 -827 0
79 -827 0
-90 -827 828 0
827 -828 0
90 -828 0
-94 -828 829 0
828 -829 0
94 -829 0
-80 -85 830 0
80 -830 0
85 -830 0
-96 -830 831 0
830 -831 0
96 -831 0
-100 -831 832 0
831 -832 0
100 -832 0
-86 -91 833 0
86 -833 0
91 -833 0
-102 -833 834 0
833 -834 0
102 -834 0
-106 -834 835 0
834 -835 0
106 -835 0
-92 -97 836 0
92 -836 0
97 -836 0
-108 -836 837 0
836 -837 0
108 -837 0
-112 -837 838 0
837 -838 0
112 -838 0
-98 -103 839 0
98 -839 0
103 -839 0
-114 -839 840 0
839 -840 0
114 -840 0
-118 -840 841 0
840 -841 0
118 -841 0
-104 -109 842 0
104 -842 0
109 -842 0
-120 -842 843 0
842 -843 0
120 -843 0
-124 -843 844 0
843 -844 0
124 -844 0
-110 -115 845 0
110 -845 0
115 -845 0
-126 -845 846 0
845 -846 0
126 -846 0
-130 -846 847 0
846 -847 0
130 -847 0
-116 -121 848 0
116 -848 0
121 -848 0
-132 -848 849 0
848 -849 0
132 -849 0
-136 -849 850 0
849 -850 0
136 -850 0
-122 -127 851 0
122 -851 0
127 -851 0
-138 -851 852 0
851 -852 0
138 -852 0
-142 -852 853 0
852 -853 0
142 -853 0
-128 -133 854 0
128 -854 0
133 -854 0
-144 -854 855 0
854 -855 0
144 -855 0
-148 -855 856 0
855 -856 0
148 -856 0
-134 -139 857 0
134 -857 0
139 -857 0
-150 -857 858 0
857 -858 0
150 -858 0
-154 -858 859 0
858 -859 0
154 -859 0
856 859 -860 0
-859 860 0
-856 860 0
853 860 -861 0
-860 861 0
-853 861 0
850 861 -862 0
-861 862 0
-850 862 0
847 862 -863 0
-862 863 0
-847 863 0
844 863 -864 0
-863 864 0
-844 864 0
841 864 -865 0
-864 865 0
-841 865 0
838 865 -866 0
-865 866 0
-838 866 0
835 866 -867 0
-866 867 0
-835 867 0
832 867 -868 0
-867 868 0
-832 868 0
829 868 -869 0
-868 869 0
-829 869 0
826 869 -870 0
-869 870 0
-826 870 0
823 870 -871 0
-870 871 0
-823 871 0
820 871 -872 0
-871 872 0
-820 872 0
817 872 -873 0
-872 873 0
-817 873 0
814 873 -874 0
-873 874 0
-814 874 0
811 874 -875 0
-874 875 0
-811 875 0
808 875 -876 0
-875 876 0
-808 876 0
805 876 -877 0
-876 877 0
-805 877 0
802 877 -878 0
-877 878 0
-802 878 0
799 878 -879 0
-878 879 0
-799 879 0
796 879 -880 0
-879 880 0
-796 880 0
793 880 0
-2 -10 881 0
2 -881 0
10 -881 0
-13 -881 882 0
881 -882 0
13 -882 0
-24 -882 883 0
882 -883 0
24 -883 0
-8 -16 884 0
8 -884 0
16 -884 0
-19 -884 885 0
884 -885 0
19 -885 0
-30 -885 886 0
885 -886 0
30 -886 0
-14 -22 887 0
14 -887 0
22 -887 0
-25 -887 888 0
887 -888 0
25 -888 0
-36 -888 889 0
888 -889 0
36 -889 0
-20 -28 890 0
20 -890 0
28 -890 0
-31 -890 891 0
890 -891 0
31 -891 0
-42 -891 892 0
891 -892 0
42 -892 0
-26 -34 893 0
26 -893 0
34 -893 0
-37 -893 894 0
893 -894 0
37 -894 0
-48 -894 895 0
894 -895 0
48 -895 0
-32 -40 896 0
32 -896 0
40 -896 0
-43 -896 897 0
896 -897 0
43 -897 0
-54 -897 898 0
897 -898 0
54 -898 0
-38 -46 899 0
38 -899 0
46 -899 0
-49 -899 900 0
899 -900 0
49 -900 0
-60 -900 901 0
900 -901 0
60 -901 0
-44 -52 902 0
44 -902 0
52 -902 0
-55 -902 903 0
902 -903 0
55 -903 0
-66 -903 904 0
903 -904 0
66 -904 0
-50 -58 905 0
50 -905 0
58 -905 0
-61 -905 906 0
905 -906 0
61 -906 0
-72 -906 907 0
906 -907 0
72 -907 0
-56 -64 908 0
56 -908 0
64 -908 0
-67 -908 909 0
908 -909 0
67 -909 0
-78 -909 910 0
909 -910 0
78 -910 0
-62 -70 911 0
62 -911 0
70 -911 0
-73 -911 912 0
911 -912 0
73 -912 0
-84 -912 913 0
912 -913 0
84 -913 0
-68 -76 914 0
68 -914 0
76 -914 0
-79 -914 915 0
914 -915 0
79 -915 0
-90 -915 916 0
915 -916 0
90 -916 0
-74 -82 917 0
74 -917 0
82 -917 0
-85 -917 918 0
917 -918 0
85 -918 0
-96 -918 919 0
918 -919 0
96 -919 0
-80 -88 920 0
80 -920 0
88 -920 0
-91 -920 921 0
920 -921 0
91 -921 0
-102 -921 922 0
921 -922 0
102 -922 0
-86 -94 923 0
86 -923 0
94 -923 0
-97 -923 924 0
923 -924 0
97 -924 0
-108 -924 925 0
924 -925 0
108 -925 0
-92 -100 926 0
92 -926 0
100 -926 0
-103 -926 927 0
926 -927 0
103 -927 0
-114 -927 928 0
927 -928 0
114 -928 0
-98 -106 929 0
98 -929 0
106 -929 0
-109 -929 930 0
929 -930 0
109 -930 0
-120 -930 931 0
930 -931 0
120 -931 0
-104 -112 932 0
104 -932 0
112 -932 0
-115 -932 933 0
932 -933 0
115 -933 0
-126 -933 934 0
933 -934 0
126 -934 0
-110 -118 935 0
110 -935 0
118 -935 0
-121 -935 936 0
935 -936 0
121 -936 0
-132 -936 937 0
936 -937 0
132 -937 0
-116 -124 938 0
116 -938 0
124 -938 0
-127 -938 939 0
938 -939 0
127 -939 0
-138 -939 940 0
939 -940 0
138 -940 0
-122 -130 941 0
122 -941 0
130 -941 0
-133 -941 942 0
941 -942 0
133 -942 0
-144 -942 943 0
942 -943 0
144 -943 0
-128 -136 944 0
128 -944 0
136 -944 0
-139 -944 945 0
944 -945 0
139 -945 0
-150 -945 946 0
945 -946 0
150 -946 0
-134 -142 947 0
134 -947 0
142 -947 0
-145 -947 948 0
947 -948 0
145 -948 0
-156 -948 949 0
948 -949 0
156 -949 0
946 949 -950 0
-949 950 0
-946 950 0
943 950 -951 0
-950 951 0
-943 951 0
940 951 -952 0
-951 952 0
-940 952 0
937 952 -953 0
-952 953 0
-937 953 0
934 953 -954 0
-953 954 0
-934 954 0
931 954 -955 0
-954 955 0
-931 955 0
928 955 -956 0
-955 956 0
-928 956 0
925 956 -957 0
-956 957 0
-925 957 0
922 957 -958 0
-957 958 0
-922 958 0
919 958 -959 0
-958 959 0
-919 959 0
916 959 -960 0
-959 960 0
-916 960 0
913 960 -961 0
-960 961 0
-913 961 0
910 961 -962 0
-961 962 0
-910 962 0
907 962 -963 0
-962 963 0
-907 963 0
904 963 -964 0
-963 964 0
-904 964 0
901 964 -965 0
-964 965 0
-901 965 0
898 965 -966 0
-965 966 0
-898 966 0
895 966 -967 0
-966 967 0
-895 967 0
892 967 -968 0
-967 968 0
-892 968 0
889 968 -969 0
-968 969 0
-889 969 0
886 969 -970 0
-969 970 0
-886 970 0
883 970 0
-1 971 0
1 -971 0
-2 -10 972 0
2 -972 0
10 -972 0
-18 -972 973 0
972 -973 0
18 -973 0
-19 -973 974 0
973 -974 0
19 -974 0
-8 -16 975 0
8 -975 0
16 -975 0
-24 -975 976 0
975 -976 0
24 -976 0
-25 -976 977 0
976 -977 0
25 -977 0
-14 -22 978 0
14 -978 0
22 -978 0
-30 -978 979 0
978 -979 0
30 -979 0
-31 -979 980 0
979 -980 0
31 -980 0
-20 -28 981 0
20 -981 0
28 -981 0
-36 -981 982 0
981 -982 0
36 -982 0
-37 -982 983 0
982 -983 0
37 -983 0
-26 -34 984 0
26 -984 0
34 -984 0
-42 -984 985 0
984 -985 0
42 -985 0
-43 -985 986 0
985 -986 0
43 -986 0
-32 -40 987 0
32 -987 0
40 -987 0
-48 -987 988 0
987 -988 0
48 -988 0
-49 -988 989 0
988 -989 0
49 -989 0
-38 -46 990 0
38 -990 0
46 -990 0
-54 -990 991 0
990 -991 0
54 -991 0
-55 -991 992 0
991 -992 0
55 -992 0
-44 -52 993 0
44 -993 0
52 -993 0
-60 -993 994 0
993 -994 0
60 -994 0
-61 -994 995 0
994 -995 0
61 -995 0
-50 -58 996 0
50 -996 0
58 -996 0
-66 -996 997 0
996 -997 0
66 -997 0
-67 -997 998 0
997 -998 0
67 -998 0
-56 -64 999 0
56 -999 0
64 -999 0
-72 -999 1000 0
999 -1000 0
72 -1000 0
-73 -1000 1001 0
1000 -1001 0
73 -1001 0
-62 -70 1002 0
62 -1002 0
70 -1002 0
-78 -1002 1003 0
1002 -1003 0
78 -1003 0
-79 -1003 1004 0
1003 -1004 0
79 -1004 0
-68 -76 1005 0
68 -1005 0
76 -1005 0
-84 -1005 1006 0
1005 -1006 0
84 -1006 0
-85 -1006 1007 0
1006 -1007 0
85 -1007 0
-74 -82 1008 0
74 -1008 0
82 -1008 0
-90 -1008 1009 0
1008 -1009 0
90 -1009 0
-91 -1009 1010 0
1009 -1010 0
91 -1010 0
-80 -88 1011 0
80 -1011 0
88 -1011 0
-96 -1011 1012 0
1011 -1012 0
96 -1012 0
-97 -1012 1013 0
1012 -1013 0
97 -1013 0
-86 -94 1014 0
86 -1014 0
94 -1014 0
-102 -1014 1015 0
1014 -1015 0
102 -1015 0
-103 -1015 1016 0
1015 -1016 0
103 -1016 0
-92 -100 1017 0
92 -1017 0
100 -1017 0
-108 -1017 1018 0
1017 -1018 0
108 -1018 0
-109 -1018 1019 0
1018 -1019 0
109 -1019 0
-98 -106 1020 0
98 -1020 0
106 -1020 0
-114 -1020 1021 0
1020 -1021 0
114 -1021 0
-115 -1021 1022 0
1021 -1022 0
115 -1022 0
-104 -112 1023 0
104 -1023 0
112 -1023 0
-120 -1023 1024 0
1023 -1024 0
120 -1024 0
-121 -1024 1025 0
1024 -1025 0
121 -1025 0
-110 -118 1026 0
110 -1026 0
118 -1026 0
-126 -1026 1027 0
1026 -1027 0
126 -1027 0
-127 -1027 1028 0
1027 -1028 0
127 -1028 0
-116 -124 1029 0
116 -1029 0
124 -1029 0
-132 -1029 1030 0
1029 -1030 0
132 -1030 0
-133 -1030 1031 0
1030 -1031 0
133 -1031 0
-122 -130 1032 0
122 -1032 0
130 -1032 0
-138 -1032 1033 0
1032 -1033 0
138 -1033 0
-139 -1033 1034 0
1033 -1034 0
139 -1034 0
-128 -136 1035 0
128 -1035 0
136 -1035 0
-144 -1035 1036 0
1035 -1036 0
144 -1036 0
-145 -1036 1037 0
1036 -1037 0
145 -1037 0
-134 -142 1038 0
134 -1038 0
142 -1038 0
-150 -1038 1039 0
1038 -1039 0
150 -1039 0
-151 -1039 1040 0
1039 -1040 0
151 -1040 0
1037 1040 -1041 0
-1040 1041 0
-1037 1041 0
1034 1041 -1042 0
-1041 1042 0
-1034 1042 0
1031 1042 -1043 0
-1042 1043 0
-1031 1043 0
1028 1043 -1044 0
-1043 1044 0
-1028 1044 0
1025 1044 -1045 0
-1044 1045 0
-1025 1045 0
1022 1045 -1046 0
-1045 1046 0
-1022 1046 0
1019 1046 -1047 0
-1046 1047 0
-1019 1047 0
1016 1047 -1048 0
-1047 1048 0
-1016 1048 0
1013 1048 -1049 0
-1048 1049 0
-1013 1049 0
1010 1049 -1050 0
-1049 1050 0
-1010 1050 0
1007 1050 -1051 0
-1050 1051 0
-1007 1051 0
1004 1051 -1052 0
-1051 1052 0
-1004 1052 0
1001 1052 -1053 0
-1052 1053 0
-1001 1053 0
998 1053 -1054 0
-1053 1054 0
-998 1054 0
995 1054 -1055 0
-1054 1055 0
-995 1055 0
992 1055 -1056 0
-1055 1056 0
-992 1056 0
989 1056 -1057 0
-1056 1057 0
-989 1057 0
986 1057 -1058 0
-1057 1058 0
-986 1058 0
983 1058 -1059 0
-1058 1059 0
-983 1059 0
980 1059 -1060 0
-1059 1060 0
-980 1060 0
977 1060 -1061 0
-1060 1061 0
-977 1061 0
974 1061 -1062 0
-1061 1062 0
-974 1062 0
1062 -1063 0
-1062 1063 0
1063 -1064 0
-1063 1064 0
971 1064 0
-2 -12 1065 0
2 -1065 0
12 -1065 0
-13 -1065 1066 0
1065 -1066 0
13 -1066 0
-22 -1066 1067 0
1066 -1067 0
22 -1067 0
-8 -18 1068 0
8 -1068 0
18 -1068 0
-19 -1068 1069 0
1068 -1069 0
19 -1069 0
-28 -1069 1070 0
1069 -1070 0
28 -1070 0
-14 -24 1071 0
14 -1071 0
24 -1071 0
-25 -1071 1072 0
1071 -1072 0
25 -1072 0
-34 -1072 1073 0
1072 -1073 0
34 -1073 0
-20 -30 1074 0
20 -1074 0
30 -1074 0
-31 -1074 1075 0
1074 -1075 0
31 -1075 0
-40 -1075 1076 0
1075 -1076 0
40 -1076 0
-26 -36 1077 0
26 -1077 0
36 -1077 0
-37 -1077 1078 0
1077 -1078 0
37 -1078 0
-46 -1078 1079 0
1078 -1079 0
46 -1079 0
-32 -42 1080 0
32 -1080 0
42 -1080 0
-43 -1080 1081 0
1080 -1081 0
43 -1081 0
-52 -1081 1082 0
1081 -1082 0
52 -1082 0
-38 -48 1083 0
38 -1083 0
48 -1083 0
-49 -1083 1084 0
1083 -1084 0
49 -1084 0
-58 -1084 1085 0
1084 -1085 0
58 -1085 0
-44 -54 1086 0
44 -1086 0
54 -1086 0
-55 -1086 1087 0
1086 -1087 0
55 -1087 0
-64 -1087 1088 0
1087 -1088 0
64 -1088 0
-50 -60 1089 0
50 -1089 0
60 -1089 0
-61 -1089 1090 0
1089 -1090 0
61 -1090 0
-70 -1090 1091 0
1090 -1091 0
70 -1091 0
-56 -66 1092 0
56 -1092 0
66 -1092 0
-67 -1092 1093 0
1092 -1093 0
67 -1093 0
-76 -1093 1094 0
1093 -1094 0
76 -1094 0
-62 -72 1095 0
62 -1095 0
72 -1095 0
-73 -1095 1096 0
1095 -1096 0
73 -1096 0
-82 -1096 1097 0
1096 -1097 0
82 -1097 0
-68 -78 1098 0
68 -1098 0
78 -1098 0
-79 -1098 1099 0
1098 -1099 0
79 -1099 0
-88 -1099 1100 0
1099 -1100 0
88 -1100 0
-74 -84 1101 0
74 -1101 0
84 -1101 0
-85 -1101 1102 0
1101 -1102 0
85 -1102 0
-94 -1102 1103 0
1102 -1103 0
94 -1103 0
-80 -90 1104 0
80 -1104 0
90 -1104 0
-91 -1104 1105 0
1104 -1105 0
91 -1105 0
-100 -1105 1106 0
1105 -1106 0
100 -1106 0
-86 -96 1107 0
86 -1107 0
96 -1107 0
-97 -1107 1108 0
1107 -1108 0
97 -1108 0
-106 -1108 1109 0
1108 -1109 0
106 -1109 0
-92 -102 1110 0
92 -1110 0
102 -1110 0
-103 -1110 1111 0
1110 -1111 0
103 -1111 0
-112 -1111 1112 0
1111 -1112 0
112 -1112 0
-98 -108 1113 0
98 -1113 0
108 -1113 0
-109 -1113 1114 0
1113 -1114 0
109 -1114 0
-118 -1114 1115 0
1114 -1115 0
118 -1115 0
-104 -114 1116 0
104 -1116 0
114 -1116 0
-115 -1116 1117 0
1116 -1117 0
115 -1117 0
-124 -1117 1118 0
1117 -1118 0
124 -1118 0
-110 -120 1119 0
110 -1119 0
120 -1119 0
-121 -1119 1120 0
1119 -1120 0
121 -1120 0
-130 -1120 1121 0
1120 -1121 0
130 -1121 0
-116 -126 1122 0
116 -1122 0
126 -1122 0
-127 -1122 1123 0
1122 -1123 0
127 -1123 0
-136 -1123 1124 0
1123 -1124 0
136 -1124 0
-122 -132 1125 0
122 -1125 0
132 -1125 0
-133 -1125 1126 0
1125 -1126 0
133 -1126 0
-142 -1126 1127 0
1126 -1127 0
142 -1127 0
-128 -138 1128 0
128 -1128 0
138 -1128 0
-139 -1128 1129 0
1128 -1129 0
139 -1129 0
-148 -1129 1130 0
1129 -1130 0
148 -1130 0
-134 -144 1131 0
134 -1131 0
144 -1131 0
-145 -1131 1132 0
1131 -1132 0
145 -1132 0
-154 -1132 1133 0
1132 -1133 0
154 -1133 0
1130 1133 -1134 0
-1133 1134 0
-1130 1134 0
1127 1134 -1135 0
-1134 1135 0
-1127 1135 0
1124 1135 -1136 0
-1135 1136 0
-1124 1136 0
1121 1136 -1137 0
-1136 1137 0
-1121 1137 0
1118 1137 -1138 0
-1137 1138 0
-1118 1138 0
1115 1138 -1139 0
-1138 1139 0
-1115 1139 0
1112 1139 -1140 0
-1139 1140 0
-1112 1140 0
1109 1140 -1141 0
-1140 1141 0
-1109 1141 0
1106 1141 -1142 0
-1141 1142 0
-1106 1142 0
1103 1142 -1143 0
-1142 1143 0
-1103 1143 0
1100 1143 -1144 0
-1143 1144 0
-1100 1144 0
1097 1144 -1145 0
-1144 1145 0
-1097 1145 0
1094 1145 -1146 0
-1145 1146 0
-1094 1146 0
1091 1146 -1147 0
-1146 1147 0
-1091 1147 0
1088 1147 -1148 0
-1147 1148 0
-1088 1148 0
1085 1148 -1149 0
-1148 1149 0
-1085 1149 0
1082 1149 -1150 0
-1149 1150 0
-1082 1150 0
1079 1150 -1151 0
-1150 1151 0
-1079 1151 0
1076 1151 -1152 0
-1151 1152 0
-1076 1152 0
1073 1152 -1153 0
-1152 1153 0
-1073 1153 0
1070 1153 -1154 0
-1153 1154 0
-1070 1154 0
1067 1154 0
-2 -12 1155 0
2 -1155 0
12 -1155 0
-16 -1155 1156 0
1155 -1156 0
16 -1156 0
-19 -1156 1157 0
1156 -1157 0
19 -1157 0
-8 -18 1158 0
8 -1158 0
18 -1158 0
-22 -1158 1159 0
1158 -1159 0
22 -1159 0
-25 -1159 1160 0
1159 -1160 0
25 -1160 0
-14 -24 1161 0
14 -1161 0
24 -1161 0
-28 -1161 1162 0
1161 -1162 0
28 -1162 0
-31 -1162 1163 0
1162 -1163 0
31 -1163 0
-20 -30 1164 0
20 -1164 0
30 -1164 0
-34 -1164 1165 0
1164 -1165 0
34 -1165 0
-37 -1165 1166 0
1165 -1166 0
37 -1166 0
-26 -36 1167 0
26 -1167 0
36 -1167 0
-40 -1167 1168 0
1167 -1168 0
40 -1168 0
-43 -1168 1169 0
1168 -1169 0
43 -1169 0
-32 -42 1170 0
32 -1170 0
42 -1170 0
-46 -1170 1171 0
1170 -1171 0
46 -1171 0
-49 -1171 1172 0
1171 -1172 0
49 -1172 0
-38 -48 1173 0
38 -1173 0
48 -1173 0
-52 -1173 1174 0
1173 -1174 0
52 -1174 0
-55 -1174 1175 0
1174 -1175 0
55 -1175 0
-44 -54 1176 0
44 -1176 0
54 -1176 0
-58 -1176 1177 0
1176 -1177 0
58 -1177 0
-61 -1177 1178 0
1177 -1178 0
61 -1178 0
-50 -60 1179 0
50 -1179 0
60 -1179 0
-64 -1179 1180 0
1179 -1180 0
64 -1180 0
-67 -1180 1181 0
1180 -1181 0
67 -1181 0
-56 -66 1182 0
56 -1182 0
66 -1182 0
-70 -1182 1183 0
1182 -1183 0
70 -1183 0
-73 -1183 1184 0
1183 -1184 0
73 -1184 0
-62 -72 1185 0
62 -1185 0
72 -1185 0
-76 -1185 1186 0
1185 -1186 0
76 -1186 0
-79 -1186 1187 0
1186 -1187 0
79 -1187 0
-68 -78 1188 0
68 -1188 0
78 -1188 0
-82 -1188 1189 0
1188 -1189 0
82 -1189 0
-85 -1189 1190 0
1189 -1190 0
85 -1190 0
-74 -84 1191 0
74 -1191 0
84 -1191 0
-88 -1191 1192 0
1191 -1192 0
88 -1192 0
-91 -1192 1193 0
1192 -1193 0
91 -1193 0
-80 -90 1194 0
80 -1194 0
90 -1194 0
-94 -1194 1195 0
1194 -1195 0
94 -1195 0
-97 -1195 1196 0
1195 -1196 0
97 -1196 0
-86 -96 1197 0
86 -1197 0
96 -1197 0
-100 -1197 1198 0
1197 -1198 0
100 -1198 0
-103 -1198 1199 0
1198 -1199 0
103 -1199 0
-92 -102 1200 0
92 -1200 0
102 -1200 0
-106 -1200 1201 0
1200 -1201 0
106 -1201 0
-109 -1201 1202 0
1201 -1202 0
109 -1202 0
-98 -108 1203 0
98 -1203 0
108 -1203 0
-112 -1203 1204 0
1203 -1204 0
112 -1204 0
-115 -1204 1205 0
1204 -1205 0
115 -1205 0
-104 -114 1206 0
104 -1206 0
114 -1206 0
-118 -1206 1207 0
1206 -1207 0
118 -1207 0
-121 -1207 1208 0
1207 -1208 0
121 -1208 0
-110 -120 1209 0
110 -1209 0
120 -1209 0
-124 -1209 1210 0
1209 -1210 0
124 -1210 0
-127 -1210 1211 0
1210 -1211 0
127 -1211 0
-116 -126 1212 0
116 -1212 0
126 -1212 0
-130 -1212 1213 0
1212 -1213 0
130 -1213 0
-133 -1213 1214 0
1213 -1214 0
133 -1214 0
-122 -132 1215 0
122 -1215 0
132 -1215 0
-136 -1215 1216 0
1215 -1216 0
136 -1216 0
-139 -1216 1217 0
1216 -1217 0
139 -1217 0
-128 -138 1218 0
128 -1218 0
138 -1218 0
-142 -1218 1219 0
1218 -1219 0
142 -1219 0
-145 -1219 1220 0
1219 -1220 0
145 -1220 0
-134 -144 1221 0
134 -1221 0
144 -1221 0
-148 -1221 1222 0
1221 -1222 0
148 -1222 0
-151 -1222 1223 0
1222 -1223 0
151 -1223 0
1220 1223 -1224 0
-1223 1224 0
-1220 1224 0
1217 1224 -1225 0
-1224 1225 0
-1217 1225 0
1214 1225 -1226 0
-1225 1226 0
-1214 1226 0
1211 1226 -1227 0
-1226 1227 0
-1211 1227 0
1208 1227 -1228 0
-1227 1228 0
-1208 1228 0
1205 1228 -1229 0
-1228 1229 0
-1205 1229 0
1202 1229 -1230 0
-1229 1230 0
-1202 1230 0
1199 1230 -1231 0
-1230 1231 0
-1199 1231 0
1196 1231 -1232 0
-1231 1232 0
-1196 1232 0
1193 1232 -1233 0
-1232 1233 0
-1193 1233 0
1190 1233 -1234 0
-1233 1234 0
-1190 1234 0
1187 1234 -1235 0
-1234 1235 0
-1187 1235 0
1184 1235 -1236 0
-1235 1236 0
-1184 1236 0
1181 1236 -1237 0
-1236 1237 0
-1181 1237 0
1178 1237 -1238 0
-1237 1238 0
-1178 1238 0
1175 1238 -1239 0
-1238 1239 0
-1175 1239 0
1172 1239 -1240 0
-1239 1240 0
-1172 1240 0
1169 1240 -1241 0
-1240 1241 0
-1169 1241 0
1166 1241 -1242 0
-1241 1242 0
-1166 1242 0
1163 1242 -1243 0
-1242 1243 0
-1163 1243 0
1160 1243 -1244 0
-1243 1244 0
-1160 1244 0
1157 1244 0
-4 -8 1245 0
4 -1245 0
8 -1245 0
-13 -1245 1246 0
1245 -1246 0
13 -1246 0
-24 -1246 1247 0
1246 -1247 0
24 -1247 0
-10 -14 1248 0
10 -1248 0
14 -1248 0
-19 -1248 1249 0
1248 -1249 0
19 -1249 0
-30 -1249 1250 0
1249 -1250 0
30 -1250 0
-16 -20 1251 0
16 -1251 0
20 -1251 0
-25 -1251 1252 0
1251 -1252 0
25 -1252 0
-36 -1252 1253 0
1252 -1253 0
36 -1253 0
-22 -26 1254 0
22 -1254 0
26 -1254 0
-31 -1254 1255 0
1254 -1255 0
31 -1255 0
-42 -1255 1256 0
1255 -1256 0
42 -1256 0
-28 -32 1257 0
28 -1257 0
32 -1257 0
-37 -1257 1258 0
1257 -1258 0
37 -1258 0
-48 -1258 1259 0
1258 -1259 0
48 -1259 0
-34 -38 1260 0
34 -1260 0
38 -1260 0
-43 -1260 1261 0
1260 -1261 0
43 -1261 0
-54 -1261 1262 0
1261 -1262 0
54 -1262 0
-40 -44 1263 0
40 -1263 0
44 -1263 0
-49 -1263 1264 0
1263 -1264 0
49 -1264 0
-60 -1264 1265 0
1264 -1265 0
60 -1265 0
-46 -50 1266 0
46 -1266 0
50 -1266 0
-55 -1266 1267 0
1266 -1267 0
55 -1267 0
-66 -1267 1268 0
1267 -1268 0
66 -1268 0
-52 -56 1269 0
52 -1269 0
56 -1269 0
-61 -1269 1270 0
1269 -1270 0
61 -1270 0
-72 -1270 1271 0
1270 -1271 0
72 -1271 0
-58 -62 1272 0
58 -1272 0
62 -1272 0
-67 -1272 1273 0
1272 -1273 0
67 -1273 0
-78 -1273 1274 0
1273 -1274 0
78 -1274 0
-64 -68 1275 0
64 -1275 0
68 -1275 0
-73 -1275 1276 0
1275 -1276 0
73 -1276 0
-84 -1276 1277 0
1276 -1277 0
84 -1277 0
-70 -74 1278 0
70 -1278 0
74 -1278 0
-79 -1278 1279 0
1278 -1279 0
79 -1279 0
-90 -1279 1280 0
1279 -1280 0
90 -1280 0
-76 -80 1281 0
76 -1281 0
80 -1281 0
-85 -1281 1282 0
1281 -1282 0
85 -1282 0
-96 -1282 1283 0
1282 -1283 0
96 -1283 0
-82 -86 1284 0
82 -1284 0
86 -1284 0
-91 -1284 1285 0
1284 -1285 0
91 -1285 0
-102 -1285 1286 0
1285 -1286 0
102 -1286 0
-88 -92 1287 0
88 -1287 0
92 -1287 0
-97 -1287 1288 0
1287 -1288 0
97 -1288 0
-108 -1288 1289 0
1288 -1289 0
108 -1289 0
-94 -98 1290 0
94 -1290 0
98 -1290 0
-103 -1290 1291 0
1290 -1291 0
103 -1291 0
-114 -1291 1292 0
1291 -1292 0
114 -1292 0
-100 -104 1293 0
100 -1293 0
104 -1293 0
-109 -1293 1294 0
1293 -1294 0
109 -1294 0
-120 -1294 1295 0
1294 -1295 0
120 -1295 0
-106 -110 1296 0
106 -1296 0
110 -1296 0
-115 -1296 1297 0
1296 -1297 0
115 -1297 0
-126 -1297 1298 0
1297 -1298 0
126 -1298 0
-112 -116 1299 0
112 -1299 0
116 -1299 0
-121 -1299 1300 0
1299 -1300 0
121 -1300 0
-132 -1300 1301 0
1300 -1301 0
132 -1301 0
-118 -122 1302 0
118 -1302 0
122 -1302 0
-127 -1302 1303 0
1302 -1303 0
127 -1303 0
-138 -1303 1304 0
1303 -1304 0
138 -1304 0
-124 -128 1305 0
124 -1305 0
128 -1305 0
-133 -1305 1306 0
1305 -1306 0
133 -1306 0
-144 -1306 1307 0
1306 -1307 0
144 -1307 0
-130 -134 1308 0
130 -1308 0
134 -1308 0
-139 -1308 1309 0
1308 -1309 0
139 -1309 0
-150 -1309 1310 0
1309 -1310 0
150 -1310 0
-136 -140 1311 0
136 -1311 0
140 -1311 0
-145 -1311 1312 0
1311 -1312 0
145 -1312 0
-156 -1312 1313 0
1312 -1313 0
156 -1313 0
1310 1313 -1314 0
-1313 1314 0
-1310 1314 0
1307 1314 -1315 0
-1314 1315 0
-1307 1315 0
1304 1315 -1316 0
-1315 1316 0
-1304 1316 0
1301 1316 -1317 0
-1316 1317 0
-1301 1317 0
1298 1317 -1318 0
-1317 1318 0
-1298 1318 0
1295 1318 -1319 0
-1318 1319 0
-1295 1319 0
1292 1319 -1320 0
-1319 1320 0
-1292 1320 0
1289 1320 -1321 0
-1320 1321 0
-1289 1321 0
1286 1321 -1322 0
-1321 1322 0
-1286 1322 0
1283 1322 -1323 0
-1322 1323 0
-1283 1323 0
1280 1323 -1324 0
-1323 1324 0
-1280 1324 0
1277 1324 -1325 0
-1324 1325 0
-1277 1325 0
1274 1325 -1326 0
-1325 1326 0
-1274 1326 0
1271 1326 -1327 0
-1326 1327 0
-1271 1327 0
1268 1327 -1328 0
-1327 1328 0
-1268 1328 0
1265 1328 -1329 0
-1328 1329 0
-1265 1329 0
1262 1329 -1330 0
-1329 1330 0
-1262 1330 0
1259 1330 -1331 0
-1330 1331 0
-1259 1331 0
1256 1331 -1332 0
-1331 1332 0
-1256 1332 0
1253 1332 -1333 0
-1332 1333 0
-1253 1333 0
1250 1333 -1334 0
-1333 1334 0
-1250 1334 0
1247 1334 0
-4 -8 1335 0
4 -1335 0
8 -1335 0
-18 -1335 1336 0
1335 -1336 0
18 -1336 0
-19 -1336 1337 0
1336 -1337 0
19 -1337 0
-10 -14 1338 0
10 -1338 0
14 -1338 0
-24 -1338 1339 0
1338 -1339 0
24 -1339 0
-25 -1339 1340 0
1339 -1340 0
25 -1340 0
-16 -20 1341 0
16 -1341 0
20 -1341 0
-30 -1341 1342 0
1341 -1342 0
30 -1342 0
-31 -1342 1343 0
1342 -1343 0
31 -1343 0
-22 -26 1344 0
22 -1344 0
26 -1344 0
-36 -1344 1345 0
1344 -1345 0
36 -1345 0
-37 -1345 1346 0
1345 -1346 0
37 -1346 0
-28 -32 1347 0
28 -1347 0
32 -1347 0
-42 -1347 1348 0
1347 -1348 0
42 -1348 0
-43 -1348 1349 0
1348 -1349 0
43 -1349 0
-34 -38 1350 0
34 -1350 0
38 -1350 0
-48 -1350 1351 0
1350 -1351 0
48 -1351 0
-49 -1351 1352 0
1351 -1352 0
49 -1352 0
-40 -44 1353 0
40 -1353 0
44 -1353 0
-54 -1353 1354 0
1353 -1354 0
54 -1354 0
-55 -1354 1355 0
1354 -1355 0
55 -1355 0
-46 -50 1356 0
46 -1356 0
50 -1356 0
-60 -1356 1357 0
1356 -1357 0
60 -1357 0
-61 -1357 1358 0
1357 -1358 0
61 -1358 0
-52 -56 1359 0
52 -1359 0
56 -1359 0
-66 -1359 1360 0
1359 -1360 0
66 -1360 0
-67 -1360 1361 0
1360 -1361 0
67 -1361 0
-58 -62 1362 0
58 -1362 0
62 -1362 0
-72 -1362 1363 0
1362 -1363 0
72 -1363 0
-73 -1363 1364 0
1363 -1364 0
73 -1364 0
-64 -68 1365 0
64 -1365 0
68 -1365 0
-78 -1365 1366 0
1365 -1366 0
78 -1366 0
-79 -1366 1367 0
1366 -1367 0
79 -1367 0
-70 -74 1368 0
70 -1368 0
74 -1368 0
-84 -1368 1369 0
1368 -1369 0
84 -1369 0
-85 -1369 1370 0
1369 -1370 0
85 -1370 0
-76 -80 1371 0
76 -1371 0
80 -1371 0
-90 -1371 1372 0
1371 -1372 0
90 -1372 0
-91 -1372 1373 0
1372 -1373 0
91 -1373 0
-82 -86 1374 0
82 -1374 0
86 -1374 0
-96 -1374 1375 0
1374 -1375 0
96 -1375 0
-97 -1375 1376 0
1375 -1376 0
97 -1376 0
-88 -92 1377 0
88 -1377 0
92 -1377 0
-102 -1377 1378 0
1377 -1378 0
102 -1378 0
-103 -1378 1379 0
1378 -1379 0
103 -1379 0
-94 -98 1380 0
94 -1380 0
98 -1380 0
-108 -1380 1381 0
1380 -1381 0
108 -1381 0
-109 -1381 1382 0
1381 -1382 0
109 -1382 0
-100 -104 1383 0
100 -1383 0
104 -1383 0
-114 -1383 1384 0
1383 -1384 0
114 -1384 0
-115 -1384 1385 0
1384 -1385 0
115 -1385 0
-106 -110 1386 0
106 -1386 0
110 -1386 0
-120 -1386 1387 0
1386 -1387 0
120 -1387 0
-121 -1387 1388 0
1387 -1388 0
121 -1388 0
-112 -116 1389 0
112 -1389 0
116 -1389 0
-126 -1389 1390 0
1389 -1390 0
126 -1390 0
-127 -1390 1391 0
1390 -1391 0
127 -1391 0
-118 -122 1392 0
118 -1392 0
122 -1392 0
-132 -1392 1393 0
1392 -1393 0
132 -1393 0
-133 -1393 1394 0
1393 -1394 0
133 -1394 0
-124 -128 1395 0
124 -1395 0
128 -1395 0
-138 -1395 1396 0
1395 -1396 0
138 -1396 0
-139 -1396 1397 0
1396 -1397 0
139 -1397 0
-130 -134 1398 0
130 -1398 0
134 -1398 0
-144 -1398 1399 0
1398 -1399 0
144 -1399 0
-145 -1399 1400 0
1399 -1400 0
145 -1400 0
-136 -140 1401 0
136 -1401 0
140 -1401 0
-150 -1401 1402 0
1401 -1402 0
150 -1402 0
-151 -1402 1403 0
1402 -1403 0
151 -1403 0
1400 1403 -1404 0
-1403 1404 0
-1400 1404 0
1397 1404 -1405 0
-1404 1405 0
-1397 1405 0
1394 1405 -1406 0
-1405 1406 0
-1394 1406 0
1391 1406 -1407 0
-1406 1407 0
-1391 1407 0
1388 1407 -1408 0
-1407 1408 0
-1388 1408 0
1385 1408 -1409 0
-1408 1409 0
-1385 1409 0
1382 1409 -1410 0
-1409 1410 0
-1382 1410 0
1379 1410 -1411 0
-1410 1411 0
-1379 1411 0
1376 1411 -1412 0
-1411 1412 0
-1376 1412 0
1373 1412 -1413 0
-1412 1413 0
-1373 1413 0
1370 1413 -1414 0
-1413 1414 0
-1370 1414 0
1367 1414 -1415 0
-1414 1415 0
-1367 1415 0
1364 1415 -1416 0
-1415 1416 0
-1364 1416 0
1361 1416 -1417 0
-1416 1417 0
-1361 1417 0
1358 1417 -1418 0
-1417 1418 0
-1358 1418 0
1355 1418 -1419 0
-1418 1419 0
-1355 1419 0
1352 1419 -1420 0
-1419 1420 0
-1352 1420 0
1349 1420 -1421 0
-1420 1421 0
-1349 1421 0
1346 1421 -1422 0
-1421 1422 0
-1346 1422 0
1343 1422 -1423 0
-1422 1423 0
-1343 1423 0
1340 1423 -1424 0
-1423 1424 0
-1340 1424 0
1337 1424 0
-4 -7 1425 0
4 -1425 0
7 -1425 0
-14 -1425 1426 0
1425 -1426 0
14 -1426 0
-24 -1426 1427 0
1426 -1427 0
24 -1427 0
-10 -13 1428 0
10 -1428 0
13 -1428 0
-20 -1428 1429 0
1428 -1429 0
20 -1429 0
-30 -1429 1430 0
1429 -1430 0
30 -1430 0
-16 -19 1431 0
16 -1431 0
19 -1431 0
-26 -1431 1432 0
1431 -1432 0
26 -1432 0
-36 -1432 1433 0
1432 -1433 0
36 -1433 0
-22 -25 1434 0
22 -1434 0
25 -1434 0
-32 -1434 1435 0
1434 -1435 0
32 -1435 0
-42 -1435 1436 0
1435 -1436 0
42 -1436 0
-28 -31 1437 0
28 -1437 0
31 -1437 0
-38 -1437 1438 0
1437 -1438 0
38 -1438 0
-48 -1438 1439 0
1438 -1439 0
48 -1439 0
-34 -37 1440 0
34 -1440 0
37 -1440 0
-44 -1440 1441 0
1440 -1441 0
44 -1441 0
-54 -1441 1442 0
1441 -1442 0
54 -1442 0
-40 -43 1443 0
40 -1443 0
43 -1443 0
-50 -1443 1444 0
1443 -1444 0
50 -1444 0
-60 -1444 1445 0
1444 -1445 0
60 -1445 0
-46 -49 1446 0
46 -1446 0
49 -1446 0
-56 -1446 1447 0
1446 -1447 0
56 -1447 0
-66 -1447 1448 0
1447 -1448 0
66 -1448 0
-52 -55 1449 0
52 -1449 0
55 -1449 0
-62 -1449 1450 0
1449 -1450 0
62 -1450 0
-72 -1450 1451 0
1450 -1451 0
72 -1451 0
-58 -61 1452 0
58 -1452 0
61 -1452 0
-68 -1452 1453 0
1452 -1453 0
68 -1453 0
-78 -1453 1454 0
1453 -1454 0
78 -1454 0
-64 -67 1455 0
64 -1455 0
67 -1455 0
-74 -1455 1456 0
1455 -1456 0
74 -1456 0
-84 -1456 1457 0
1456 -1457 0
84 -1457 0
-70 -73 1458 0
70 -1458 0
73 -1458 0
-80 -1458 1459 0
1458 -1459 0
80 -1459 0
-90 -1459 1460 0
1459 -1460 0
90 -1460 0
-76 -79 1461 0
76 -1461 0
79 -1461 0
-86 -1461 1462 0
1461 -1462 0
86 -1462 0
-96 -1462 1463 0
1462 -1463 0
96 -1463 0
-82 -85 1464 0
82 -1464 0
85 -1464 0
-92 -1464 1465 0
1464 -1465 0
92 -1465 0
-102 -1465 1466 0
1465 -1466 0
102 -1466 0
-88 -91 1467 0
88 -1467 0
91 -1467 0
-98 -1467 1468 0
1467 -1468 0
98 -1468 0
-108 -1468 1469 0
1468 -1469 0
108 -1469 0
-94 -97 1470 0
94 -1470 0
97 -1470 0
-104 -1470 1471 0
1470 -1471 0
104 -1471 0
-114 -1471 1472 0
1471 -1472 0
114 -1472 0
-100 -103 1473 0
100 -1473 0
103 -1473 0
-110 -1473 1474 0
1473 -1474 0
110 -1474 0
-120 -1474 1475 0
1474 -1475 0
120 -1475 0
-106 -109 1476 0
106 -1476 0
109 -1476 0
-116 -1476 1477 0
1476 -1477 0
116 -1477 0
-126 -1477 1478 0
1477 -1478 0
126 -1478 0
-112 -115 1479 0
112 -1479 0
115 -1479 0
-122 -1479 1480 0
1479 -1480 0
122 -1480 0
-132 -1480 1481 0
1480 -1481 0
132 -1481 0
-118 -121 1482 0
118 -1482 0
121 -1482 0
-128 -1482 1483 0
1482 -1483 0
128 -1483 0
-138 -1483 1484 0
1483 -1484 0
138 -1484 0
-124 -127 1485 0
124 -1485 0
127 -1485 0
-134 -1485 1486 0
1485 -1486 0
134 -1486 0
-144 -1486 1487 0
1486 -1487 0
144 -1487 0
-130 -133 1488 0
130 -1488 0
133 -1488 0
-140 -1488 1489 0
1488 -1489 0
140 -1489 0
-150 -1489 1490 0
1489 -1490 0
150 -1490 0
-136 -139 1491 0
136 -1491 0
139 -1491 0
-146 -1491 1492 0
1491 -1492 0
146 -1492 0
-156 -1492 1493 0
1492 -1493 0
156 -1493 0
1490 1493 -1494 0
-1493 1494 0
-1490 1494 0
1487 1494 -1495 0
-1494 1495 0
-1487 1495 0
1484 1495 -1496 0
-1495 1496 0
-1484 1496 0
1481 1496 -1497 0
-1496 1497 0
-1481 1497 0
1478 1497 -1498 0
-1497 1498 0
-1478 1498 0
1475 1498 -1499 0
-1498 1499 0
-1475 1499 0
1472 1499 -1500 0
-1499 1500 0
-1472 1500 0
1469 1500 -1501 0
-1500 1501 0
-1469 1501 0
1466 1501 -1502 0
-1501 1502 0
-1466 1502 0
1463 1502 -1503 0
-1502 1503 0
-1463 1503 0
1460 1503 -1504 0
-1503 1504 0
-1460 1504 0
1457 1504 -1505 0
-1504 1505 0
-1457 1505 0
1454 1505 -1506 0
-1505 1506 0
-1454 1506 0
1451 1506 -1507 0
-1506 1507 0
-1451 1507 0
1448 1507 -1508 0
-1507 1508 0
-1448 1508 0
1445 1508 -1509 0
-1508 1509 0
-1445 1509 0
1442 1509 -1510 0
-1509 1510 0
-1442 1510 0
1439 1510 -1511 0
-1510 1511 0
-1439 1511 0
1436 1511 -1512 0
-1511 1512 0
-1436 1512 0
1433 1512 -1513 0
-1512 1513 0
-1433 1513 0
1430 1513 -1514 0
-1513 1514 0
-1430 1514 0
1427 1514 0
-4 -7 1515 0
4 -1515 0
7 -1515 0
-18 -1515 1516 0
1515 -1516 0
18 -1516 0
-20 -1516 1517 0
1516 -1517 0
20 -1517 0
-10 -13 1518 0
10 -1518 0
13 -1518 0
-24 -1518 1519 0
1518 -1519 0
24 -1519 0
-26 -1519 1520 0
1519 -1520 0
26 -1520 0
-16 -19 1521 0
16 -1521 0
19 -1521 0
-30 -1521 1522 0
1521 -1522 0
30 -1522 0
-32 -1522 1523 0
1522 -1523 0
32 -1523 0
-22 -25 1524 0
22 -1524 0
25 -1524 0
-36 -1524 1525 0
1524 -1525 0
36 -1525 0
-38 -1525 1526 0
1525 -1526 0
38 -1526 0
-28 -31 1527 0
28 -1527 0
31 -1527 0
-42 -1527 1528 0
1527 -1528 0
42 -1528 0
-44 -1528 1529 0
1528 -1529 0
44 -1529 0
-34 -37 1530 0
34 -1530 0
37 -1530 0
-48 -1530 1531 0
1530 -1531 0
48 -1531 0
-50 -1531 1532 0
1531 -1532 0
50 -1532 0
-40 -43 1533 0
40 -1533 0
43 -1533 0
-54 -1533 1534 0
1533 -1534 0
54 -1534 0
-56 -1534 1535 0
1534 -1535 0
56 -1535 0
-46 -49 1536 0
46 -1536 0
49 -1536 0
-60 -1536 1537 0
1536 -1537 0
60 -1537 0
-62 -1537 1538 0
1537 -1538 0
62 -1538 0
-52 -55 1539 0
52 -1539 0
55 -1539 0
-66 -1539 1540 0
1539 -1540 0
66 -1540 0
-68 -1540 1541 0
1540 -1541 0
68 -1541 0
-58 -61 1542 0
58 -1542 0
61 -1542 0
-72 -1542 1543 0
1542 -1543 0
72 -1543 0
-74 -1543 1544 0
1543 -1544 0
74 -1544 0
-64 -67 1545 0
64 -1545 0
67 -1545 0
-78 -1545 1546 0
1545 -1546 0
78 -1546 0
-80 -1546 1547 0
1546 -1547 0
80 -1547 0
-70 -73 1548 0
70 -1548 0
73 -1548 0
-84 -1548 1549 0
1548 -1549 0
84 -1549 0
-86 -1549 1550 0
1549 -1550 0
86 -1550 0
-76 -79 1551 0
76 -1551 0
79 -1551 0
-90 -1551 1552 0
1551 -1552 0
90 -1552 0
-92 -1552 1553 0
1552 -1553 0
92 -1553 0
-82 -85 1554 0
82 -1554 0
85 -1554 0
-96 -1554 1555 0
1554 -1555 0
96 -1555 0
-98 -1555 1556 0
1555 -1556 0
98 -1556 0
-88 -91 1557 0
88 -1557 0
91 -1557 0
-102 -1557 1558 0
1557 -1558 0
102 -1558 0
-104 -1558 1559 0
1558 -1559 0
104 -1559 0
-94 -97 1560 0
94 -1560 0
97 -1560 0
-108 -1560 1561 0
1560 -1561 0
108 -1561 0
-110 -1561 1562 0
1561 -1562 0
110 -1562 0
-100 -103 1563 0
100 -1563 0
103 -1563 0
-114 -1563 1564 0
1563 -1564 0
114 -1564 0
-116 -1564 1565 0
1564 -1565 0
116 -1565 0
-106 -109 1566 0
106 -1566 0
109 -1566 0
-120 -1566 1567 0
1566 -1567 0
120 -1567 0
-122 -1567 1568 0
1567 -1568 0
122 -1568 0
-112 -115 1569 0
112 -1569 0
115 -1569 0
-126 -1569 1570 0
1569 -1570 0
126 -1570 0
-128 -1570 1571 0
1570 -1571 0
128 -1571 0
-118 -121 1572 0
118 -1572 0
121 -1572 0
-132 -1572 1573 0
1572 -1573 0
132 -1573 0
-134 -1573 1574 0
1573 -1574 0
134 -1574 0
-124 -127 1575 0
124 -1575 0
127 -1575 0
-138 -1575 1576 0
1575 -1576 0
138 -1576 0
-140 -1576 1577 0
1576 -1577 0
140 -1577 0
-130 -133 1578 0
130 -1578 0
133 -1578 0
-144 -1578 1579 0
1578 -1579 0
144 -1579 0
-146 -1579 1580 0
1579 -1580 0
146 -1580 0
-136 -139 1581 0
136 -1581 0
139 -1581 0
-150 -1581 1582 0
1581 -1582 0
150 -1582 0
-152 -1582 1583 0
1582 -1583 0
152 -1583 0
1580 1583 -1584 0
-1583 1584 0
-1580 1584 0
1577 1584 -1585 0
-1584 1585 0
-1577 1585 0
1574 1585 -1586 0
-1585 1586 0
-1574 1586 0
1571 1586 -1587 0
-1586 1587 0
-1571 1587 0
1568 1587 -1588 0
-1587 1588 0
-1568 1588 0
1565 1588 -1589 0
-1588 1589 0
-1565 1589 0
1562 1589 -1590 0
-1589 1590 0
-1562 1590 0
1559 1590 -1591 0
-1590 1591 0
-1559 1591 0
1556 1591 -1592 0
-1591 1592 0
-1556 1592 0
1553 1592 -1593 0
-1592 1593 0
-1553 1593 0
1550 1593 -1594 0
-1593 1594 0
-1550 1594 0
1547 1594 -1595 0
-1594 1595 0
-1547 1595 0
1544 1595 -1596 0
-1595 1596 0
-1544 1596 0
1541 1596 -1597 0
-1596 1597 0
-1541 1597 0
1538 1597 -1598 0
-1597 1598 0
-1538 1598 0
1535 1598 -1599 0
-1598 1599 0
-1535 1599 0
1532 1599 -1600 0
-1599 1600 0
-1532 1600 0
1529 1600 -1601 0
-1600 1601 0
-1529 1601 0
1526 1601 -1602 0
-1601 1602 0
-1526 1602 0
1523 1602 -1603 0
-1602 1603 0
-1523 1603 0
1520 1603 -1604 0
-1603 1604 0
-1520 1604 0
1517 1604 0
-2 1605 0
2 -1605 0
-7 -1605 1606 0
1605 -1606 0
7 -1606 0
-4 -12 1607 0
4 -1607 0
12 -1607 0
-14 -1607 1608 0
1607 -1608 0
14 -1608 0
-19 -1608 1609 0
1608 -1609 0
19 -1609 0
-10 -18 1610 0
10 -1610 0
18 -1610 0
-20 -1610 1611 0
1610 -1611 0
20 -1611 0
-25 -1611 1612 0
1611 -1612 0
25 -1612 0
-16 -24 1613 0
16 -1613 0
24 -1613 0
-26 -1613 1614 0
1613 -1614 0
26 -1614 0
-31 -1614 1615 0
1614 -1615 0
31 -1615 0
-22 -30 1616 0
22 -1616 0
30 -1616 0
-32 -1616 1617 0
1616 -1617 0
32 -1617 0
-37 -1617 1618 0
1617 -1618 0
37 -1618 0
-28 -36 1619 0
28 -1619 0
36 -1619 0
-38 -1619 1620 0
1619 -1620 0
38 -1620 0
-43 -1620 1621 0
1620 -1621 0
43 -1621 0
-34 -42 1622 0
34 -1622 0
42 -1622 0
-44 -1622 1623 0
1622 -1623 0
44 -1623 0
-49 -1623 1624 0
1623 -1624 0
49 -1624 0
-40 -48 1625 0
40 -1625 0
48 -1625 0
-50 -1625 1626 0
1625 -1626 0
50 -1626 0
-55 -1626 1627 0
1626 -1627 0
55 -1627 0
-46 -54 1628 0
46 -1628 0
54 -1628 0
-56 -1628 1629 0
1628 -1629 0
56 -1629 0
-61 -1629 1630 0
1629 -1630 0
61 -1630 0
-52 -60 1631 0
52 -1631 0
60 -1631 0
-62 -1631 1632 0
1631 -1632 0
62 -1632 0
-67 -1632 1633 0
1632 -1633 0
67 -1633 0
-58 -66 1634 0
58 -1634 0
66 -1634 0
-68 -1634 1635 0
1634 -1635 0
68 -1635 0
-73 -1635 1636 0
1635 -1636 0
73 -1636 0
-64 -72 1637 0
64 -1637 0
72 -1637 0
-74 -1637 1638 0
1637 -1638 0
74 -1638 0
-79 -1638 1639 0
1638 -1639 0
79 -1639 0
-70 -78 1640 0
70 -1640 0
78 -1640 0
-80 -1640 1641 0
1640 -1641 0
80 -1641 0
-85 -1641 1642 0
1641 -1642 0
85 -1642 0
-76 -84 1643 0
76 -1643 0
84 -1643 0
-86 -1643 1644 0
1643 -1644 0
86 -1644 0
-91 -1644 1645 0
1644 -1645 0
91 -1645 0
-82 -90 1646 0
82 -1646 0
90 -1646 0
-92 -1646 1647 0
1646 -1647 0
92 -1647 0
-97 -1647 1648 0
1647 -1648 0
97 -1648 0
-88 -96 1649 0
88 -1649 0
96 -1649 0
-98 -1649 1650 0
1649 -1650 0
98 -1650 0
-103 -1650 1651 0
1650 -1651 0
103 -1651 0
-94 -102 1652 0
94 -1652 0
102 -1652 0
-104 -1652 1653 0
1652 -1653 0
104 -1653 0
-109 -1653 1654 0
1653 -1654 0
109 -1654 0
-100 -108 1655 0
100 -1655 0
108 -1655 0
-110 -1655 1656 0
1655 -1656 0
110 -1656 0
-115 -1656 1657 0
1656 -1657 0
115 -1657 0
-106 -114 1658 0
106 -1658 0
114 -1658 0
-116 -1658 1659 0
1658 -1659 0
116 -1659 0
-121 -1659 1660 0
1659 -1660 0
121 -1660 0
-112 -120 1661 0
112 -1661 0
120 -1661 0
-122 -1661 1662 0
1661 -1662 0
122 -1662 0
-127 -1662 1663 0
1662 -1663 0
127 -1663 0
-118 -126 1664 0
118 -1664 0
126 -1664 0
-128 -1664 1665 0
1664 -1665 0
128 -1665 0
-133 -1665 1666 0
1665 -1666 0
133 -1666 0
-124 -132 1667 0
124 -1667 0
132 -1667 0
-134 -1667 1668 0
1667 -1668 0
134 -1668 0
-139 -1668 1669 0
1668 -1669 0
139 -1669 0
-130 -138 1670 0
130 -1670 0
138 -1670 0
-140 -1670 1671 0
1670 -1671 0
140 -1671 0
-145 -1671 1672 0
1671 -1672 0
145 -1672 0
-136 -144 1673 0
136 -1673 0
144 -1673 0
-146 -1673 1674 0
1673 -1674 0
146 -1674 0
-151 -1674 1675 0
1674 -1675 0
151 -1675 0
1672 1675 -1676 0
-1675 1676 0
-1672 1676 0
1669 1676 -1677 0
-1676 1677 0
-1669 1677 0
1666 1677 -1678 0
-1677 1678 0
-1666 1678 0
1663 1678 -1679 0
-1678 1679 0
-1663 1679 0
1660 1679 -1680 0
-1679 1680 0
-1660 1680 0
1657 1680 -1681 0
-1680 1681 0
-1657 1681 0
1654 1681 -1682 0
-1681 1682 0
-1654 1682 0
1651 1682 -1683 0
-1682 1683 0
-1651 1683 0
1648 1683 -1684 0
-1683 1684 0
-1648 1684 0
1645 1684 -1685 0
-1684 1685 0
-1645 1685 0
1642 1685 -1686 0
-1685 1686 0
-1642 1686 0
1639 1686 -1687 0
-1686 1687 0
-1639 1687 0
1636 1687 -1688 0
-1687 1688 0
-1636 1688 0
1633 1688 -1689 0
-1688 1689 0
-1633 1689 0
1630 1689 -1690 0
-1689 1690 0
-1630 1690 0
1627 1690 -1691 0
-1690 1691 0
-1627 1691 0
1624 1691 -1692 0
-1691 1692 0
-1624 1692 0
1621 1692 -1693 0
-1692 1693 0
-1621 1693 0
1618 1693 -1694 0
-1693 1694 0
-1618 1694 0
1615 1694 -1695 0
-1694 1695 0
-1615 1695 0
1612 1695 -1696 0
-1695 1696 0
-1612 1696 0
1609 1696 -1697 0
-1696 1697 0
-1609 1697 0
1697 -1698 0
-1697 1698 0
1606 1698 0
-1 1699 0
1 -1699 0
-8 -1699 1700 0
1699 -1700 0
8 -1700 0
-4 -12 1701 0
4 -1701 0
12 -1701 0
-13 -1701 1702 0
1701 -1702 0
13 -1702 0
-20 -1702 1703 0
1702 -1703 0
20 -1703 0
-10 -18 1704 0
10 -1704 0
18 -1704 0
-19 -1704 1705 0
1704 -1705 0
19 -1705 0
-26 -1705 1706 0
1705 -1706 0
26 -1706 0
-16 -24 1707 0
16 -1707 0
24 -1707 0
-25 -1707 1708 0
1707 -1708 0
25 -1708 0
-32 -1708 1709 0
1708 -1709 0
32 -1709 0
-22 -30 1710 0
22 -1710 0
30 -1710 0
-31 -1710 1711 0
1710 -1711 0
31 -1711 0
-38 -1711 1712 0
1711 -1712 0
38 -1712 0
-28 -36 1713 0
28 -1713 0
36 -1713 0
-37 -1713 1714 0
1713 -1714 0
37 -1714 0
-44 -1714 1715 0
1714 -1715 0
44 -1715 0
-34 -42 1716 0
34 -1716 0
42 -1716 0
-43 -1716 1717 0
1716 -1717 0
43 -1717 0
-50 -1717 1718 0
1717 -1718 0
50 -1718 0
-40 -48 1719 0
40 -1719 0
48 -1719 0
-49 -1719 1720 0
1719 -1720 0
49 -1720 0
-56 -1720 1721 0
1720 -1721 0
56 -1721 0
-46 -54 1722 0
46 -1722 0
54 -1722 0
-55 -1722 1723 0
1722 -1723 0
55 -1723 0
-62 -1723 1724 0
1723 -1724 0
62 -1724 0
-52 -60 1725 0
52 -1725 0
60 -1725 0
-61 -1725 1726 0
1725 -1726 0
61 -1726 0
-68 -1726 1727 0
1726 -1727 0
68 -1727 0
-58 -66 1728 0
58 -1728 0
66 -1728 0
-67 -1728 1729 0
1728 -1729 0
67 -1729 0
-74 -1729 1730 0
1729 -1730 0
74 -1730 0
-64 -72 1731 0
64 -1731 0
72 -1731 0
-73 -1731 1732 0
1731 -1732 0
73 -1732 0
-80 -1732 1733 0
1732 -1733 0
80 -1733 0
-70 -78 1734 0
70 -1734 0
78 -1734 0
-79 -1734 1735 0
1734 -1735 0
79 -1735 0
-86 -1735 1736 0
1735 -1736 0
86 -1736 0
-76 -84 1737 0
76 -1737 0
84 -1737 0
-85 -1737 1738 0
1737 -1738 0
85 -1738 0
-92 -1738 1739 0
1738 -1739 0
92 -1739 0
-82 -90 1740 0
82 -1740 0
90 -1740 0
-91 -1740 1741 0
1740 -1741 0
91 -1741 0
-98 -1741 1742 0
1741 -1742 0
98 -1742 0
-88 -96 1743 0
88 -1743 0
96 -1743 0
-97 -1743 1744 0
1743 -1744 0
97 -1744 0
-104 -1744 1745 0
1744 -1745 0
104 -1745 0
-94 -102 1746 0
94 -1746 0
102 -1746 0
-103 -1746 1747 0
1746 -1747 0
103 -1747 0
-110 -1747 1748 0
1747 -1748 0
110 -1748 0
-100 -108 1749 0
100 -1749 0
108 -1749 0
-109 -1749 1750 0
1749 -1750 0
109 -1750 0
-116 -1750 1751 0
1750 -1751 0
116 -1751 0
-106 -114 1752 0
106 -1752 0
114 -1752 0
-115 -1752 1753 0
1752 -1753 0
115 -1753 0
-122 -1753 1754 0
1753 -1754 0
122 -1754 0
-112 -120 1755 0
112 -1755 0
120 -1755 0
-121 -1755 1756 0
1755 -1756 0
121 -1756 0
-128 -1756 1757 0
1756 -1757 0
128 -1757 0
-118 -126 1758 0
118 -1758 0
126 -1758 0
-127 -1758 1759 0
1758 -1759 0
127 -1759 0
-134 -1759 1760 0
1759 -1760 0
134 -1760 0
-124 -132 1761 0
124 -1761 0
132 -1761 0
-133 -1761 1762 0
1761 -1762 0
133 -1762 0
-140 -1762 1763 0
1762 -1763 0
140 -1763 0
-130 -138 1764 0
130 -1764 0
138 -1764 0
-139 -1764 1765 0
1764 -1765 0
139 -1765 0
-146 -1765 1766 0
1765 -1766 0
146 -1766 0
-136 -144 1767 0
136 -1767 0
144 -1767 0
-145 -1767 1768 0
1767 -1768 0
145 -1768 0
-152 -1768 1769 0
1768 -1769 0
152 -1769 0
1766 1769 -1770 0
-1769 1770 0
-1766 1770 0
1763 1770 -1771 0
-1770 1771 0
-1763 1771 0
1760 1771 -1772 0
-1771 1772 0
-1760 1772 0
1757 1772 -1773 0
-1772 1773 0
-1757 1773 0
1754 1773 -1774 0
-1773 1774 0
-1754 1774 0
1751 1774 -1775 0
-1774 1775 0
-1751 1775 0
1748 1775 -1776 0
-1775 1776 0
-1748 1776 0
1745 1776 -1777 0
-1776 1777 0
-1745 1777 0
1742 1777 -1778 0
-1777 1778 0
-1742 1778 0
1739 1778 -1779 0
-1778 1779 0
-1739 1779 0
1736 1779 -1780 0
-1779 1780 0
-1736 1780 0
1733 1780 -1781 0
-1780 1781 0
-1733 1781 0
1730 1781 -1782 0
-1781 1782 0
-1730 1782 0
1727 1782 -1783 0
-1782 1783 0
-1727 1783 0
1724 1783 -1784 0
-1783 1784 0
-1724 1784 0
1721 1784 -1785 0
-1784 1785 0
-1721 1785 0
1718 1785 -1786 0
-1785 1786 0
-1718 1786 0
1715 1786 -1787 0
-1786 1787 0
-1715 1787 0
1712 1787 -1788 0
-1787 1788 0
-1712 1788 0
1709 1788 -1789 0
-1788 1789 0
-1709 1789 0
1706 1789 -1790 0
-1789 1790 0
-1706 1790 0
1703 1790 -1791 0
-1790 1791 0
-1703 1791 0
1791 -1792 0
-1791 1792 0
1700 1792 0
-1 1793 0
1 -1793 0
-10 -1793 1794 0
1793 -1794 0
10 -1794 0
-14 -1794 1795 0
1794 -1795 0
14 -1795 0
-6 -7 1796 0
6 -1796 0
7 -1796 0
-16 -1796 1797 0
1796 -1797 0
16 -1797 0
-20 -1797 1798 0
1797 -1798 0
20 -1798 0
-12 -13 1799 0
12 -1799 0
13 -1799 0
-22 -1799 1800 0
1799 -1800 0
22 -1800 0
-26 -1800 1801 0
1800 -1801 0
26 -1801 0
-18 -19 1802 0
18 -1802 0
19 -1802 0
-28 -1802 1803 0
1802 -1803 0
28 -1803 0
-32 -1803 1804 0
1803 -1804 0
32 -1804 0
-24 -25 1805 0
24 -1805 0
25 -1805 0
-34 -1805 1806 0
1805 -1806 0
34 -1806 0
-38 -1806 1807 0
1806 -1807 0
38 -1807 0
-30 -31 1808 0
30 -1808 0
31 -1808 0
-40 -1808 1809 0
1808 -1809 0
40 -1809 0
-44 -1809 1810 0
1809 -1810 0
44 -1810 0
-36 -37 1811 0
36 -1811 0
37 -1811 0
-46 -1811 1812 0
1811 -1812 0
46 -1812 0
-50 -1812 1813 0
1812 -1813 0
50 -1813 0
-42 -43 1814 0
42 -1814 0
43 -1814 0
-52 -1814 1815 0
1814 -1815 0
52 -1815 0
-56 -1815 1816 0
1815 -1816 0
56 -1816 0
-48 -49 1817 0
48 -1817 0
49 -1817 0
-58 -1817 1818 0
1817 -1818 0
58 -1818 0
-62 -1818 1819 0
1818 -1819 0
62 -1819 0
-54 -55 1820 0
54 -1820 0
55 -1820 0
-64 -1820 1821 0
1820 -1821 0
64 -1821 0
-68 -1821 1822 0
1821 -1822 0
68 -1822 0
-60 -61 1823 0
60 -1823 0
61 -1823 0
-70 -1823 1824 0
1823 -1824 0
70 -1824 0
-74 -1824 1825 0
1824 -1825 0
74 -1825 0
-66 -67 1826 0
66 -1826 0
67 -1826 0
-76 -1826 1827 0
1826 -1827 0
76 -1827 0
-80 -1827 1828 0
1827 -1828 0
80 -1828 0
-72 -73 1829 0
72 -1829 0
73 -1829 0
-82 -1829 1830 0
1829 -1830 0
82 -1830 0
-86 -1830 1831 0
1830 -1831 0
86 -1831 0
-78 -79 1832 0
78 -1832 0
79 -1832 0
-88 -1832 1833 0
1832 -1833 0
88 -1833 0
-92 -1833 1834 0
1833 -1834 0
92 -1834 0
-84 -85 1835 0
84 -1835 0
85 -1835 0
-94 -1835 1836 0
1835 -1836 0
94 -1836 0
-98 -1836 1837 0
1836 -1837 0
98 -1837 0
-90 -91 1838 0
90 -1838 0
91 -1838 0
-100 -1838 1839 0
1838 -1839 0
100 -1839 0
-104 -1839 1840 0
1839 -1840 0
104 -1840 0
-96 -97 1841 0
96 -1841 0
97 -1841 0
-106 -1841 1842 0
1841 -1842 0
106 -1842 0
-110 -1842 1843 0
1842 -1843 0
110 -1843 0
-102 -103 1844 0
102 -1844 0
103 -1844 0
-112 -1844 1845 0
1844 -1845 0
112 -1845 0
-116 -1845 1846 0
1845 -1846 0
116 -1846 0
-108 -109 1847 0
108 -1847 0
109 -1847 0
-118 -1847 1848 0
1847 -1848 0
118 -1848 0
-122 -1848 1849 0
1848 -1849 0
122 -1849 0
-114 -115 1850 0
114 -1850 0
115 -1850 0
-124 -1850 1851 0
1850 -1851 0
124 -1851 0
-128 -1851 1852 0
1851 -1852 0
128 -1852 0
-120 -121 1853 0
120 -1853 0
121 -1853 0
-130 -1853 1854 0
1853 -1854 0
130 -1854 0
-134 -1854 1855 0
1854 -1855 0
134 -1855 0
-126 -127 1856 0
126 -1856 0
127 -1856 0
-136 -1856 1857 0
1856 -1857 0
136 -1857 0
-140 -1857 1858 0
1857 -1858 0
140 -1858 0
-132 -133 1859 0
132 -1859 0
133 -1859 0
-142 -1859 1860 0
1859 -1860 0
142 -1860 0
-146 -1860 1861 0
1860 -1861 0
146 -1861 0
-138 -139 1862 0
138 -1862 0
139 -1862 0
-148 -1862 1863 0
1862 -1863 0
148 -1863 0
-152 -1863 1864 0
1863 -1864 0
152 -1864 0
1861 1864 -1865 0
-1864 1865 0
-1861 1865 0
1858 1865 -1866 0
-1865 1866 0
-1858 1866 0
1855 1866 -1867 0
-1866 1867 0
-1855 1867 0
1852 1867 -1868 0
-1867 1868 0
-1852 1868 0
1849 1868 -1869 0
-1868 1869 0
-1849 1869 0
1846 1869 -1870 0
-1869 1870 0
-1846 1870 0
1843 1870 -1871 0
-1870 1871 0
-1843 1871 0
1840 1871 -1872 0
-1871 1872 0
-1840 1872 0
1837 1872 -1873 0
-1872 1873 0
-1837 1873 0
1834 1873 -1874 0
-1873 1874 0
-1834 1874 0
1831 1874 -1875 0
-1874 1875 0
-1831 1875 0
1828 1875 -1876 0
-1875 1876 0
-1828 1876 0
1825 1876 -1877 0
-1876 1877 0
-1825 1877 0
1822 1877 -1878 0
-1877 1878 0
-1822 1878 0
1819 1878 -1879 0
-1878 1879 0
-1819 1879 0
1816 1879 -1880 0
-1879 1880 0
-1816 1880 0
1813 1880 -1881 0
-1880 1881 0
-1813 1881 0
1810 1881 -1882 0
-1881 1882 0
-1810 1882 0
1807 1882 -1883 0
-1882 1883 0
-1807 1883 0
1804 1883 -1884 0
-1883 1884 0
-1804 1884 0
1801 1884 -1885 0
-1884 1885 0
-1801 1885 0
1798 1885 -1886 0
-1885 1886 0
-1798 1886 0
1795 1886 0
-1 1887 0
1 -1887 0
-8 -1887 1888 0
1887 -1888 0
8 -1888 0
-16 -1888 1889 0
1888 -1889 0
16 -1889 0
-6 -7 1890 0
6 -1890 0
7 -1890 0
-14 -1890 1891 0
1890 -1891 0
14 -1891 0
-22 -1891 1892 0
1891 -1892 0
22 -1892 0
-12 -13 1893 0
12 -1893 0
13 -1893 0
-20 -1893 1894 0
1893 -1894 0
20 -1894 0
-28 -1894 1895 0
1894 -1895 0
28 -1895 0
-18 -19 1896 0
18 -1896 0
19 -1896 0
-26 -1896 1897 0
1896 -1897 0
26 -1897 0
-34 -1897 1898 0
1897 -1898 0
34 -1898 0
-24 -25 1899 0
24 -1899 0
25 -1899 0
-32 -1899 1900 0
1899 -1900 0
32 -1900 0
-40 -1900 1901 0
1900 -1901 0
40 -1901 0
-30 -31 1902 0
30 -1902 0
31 -1902 0
-38 -1902 1903 0
1902 -1903 0
38 -1903 0
-46 -1903 1904 0
1903 -1904 0
46 -1904 0
-36 -37 1905 0
36 -1905 0
37 -1905 0
-44 -1905 1906 0
1905 -1906 0
44 -1906 0
-52 -1906 1907 0
1906 -1907 0
52 -1907 0
-42 -43 1908 0
42 -1908 0
43 -1908 0
-50 -1908 1909 0
1908 -1909 0
50 -1909 0
-58 -1909 1910 0
1909 -1910 0
58 -1910 0
-48 -49 1911 0
48 -1911 0
49 -1911 0
-56 -1911 1912 0
1911 -1912 0
56 -1912 0
-64 -1912 1913 0
1912 -1913 0
64 -1913 0
-54 -55 1914 0
54 -1914 0
55 -1914 0
-62 -1914 1915 0
1914 -1915 0
62 -1915 0
-70 -1915 1916 0
1915 -1916 0
70 -1916 0
-60 -61 1917 0
60 -1917 0
61 -1917 0
-68 -1917 1918 0
1917 -1918 0
68 -1918 0
-76 -1918 1919 0
1918 -1919 0
76 -1919 0
-66 -67 1920 0
66 -1920 0
67 -1920 0
-74 -1920 1921 0
1920 -1921 0
74 -1921 0
-82 -1921 1922 0
1921 -1922 0
82 -1922 0
-72 -73 1923 0
72 -1923 0
73 -1923 0
-80 -1923 1924 0
1923 -1924 0
80 -1924 0
-88 -1924 1925 0
1924 -1925 0
88 -1925 0
-78 -79 1926 0
78 -1926 0
79 -1926 0
-86 -1926 1927 0
1926 -1927 0
86 -1927 0
-94 -1927 1928 0
1927 -1928 0
94 -1928 0
-84 -85 1929 0
84 -1929 0
85 -1929 0
-92 -1929 1930 0
1929 -1930 0
92 -1930 0
-100 -1930 1931 0
1930 -1931 0
100 -1931 0
-90 -91 1932 0
90 -1932 0
91 -1932 0
-98 -1932 1933 0
1932 -1933 0
98 -1933 0
-106 -1933 1934 0
1933 -1934 0
106 -1934 0
-96 -97 1935 0
96 -1935 0
97 -1935 0
-104 -1935 1936 0
1935 -1936 0
104 -1936 0
-112 -1936 1937 0
1936 -1937 0
112 -1937 0
-102 -103 1938 0
102 -1938 0
103 -1938 0
-110 -1938 1939 0
1938 -1939 0
110 -1939 0
-118 -1939 1940 0
1939 -1940 0
118 -1940 0
-108 -109 1941 0
108 -1941 0
109 -1941 0
-116 -1941 1942 0
1941 -1942 0
116 -1942 0
-124 -1942 1943 0
1942 -1943 0
124 -1943 0
-114 -115 1944 0
114 -1944 0
115 -1944 0
-122 -1944 1945 0
1944 -1945 0
122 -1945 0
-130 -1945 1946 0
1945 -1946 0
130 -1946 0
-120 -121 1947 0
120 -1947 0
121 -1947 0
-128 -1947 1948 0
1947 -1948 0
128 -1948 0
-136 -1948 1949 0
1948 -1949 0
136 -1949 0
-126 -127 1950 0
126 -1950 0
127 -1950 0
-134 -1950 1951 0
1950 -1951 0
134 -1951 0
-142 -1951 1952 0
1951 -1952 0
142 -1952 0
-132 -133 1953 0
132 -1953 0
133 -1953 0
-140 -1953 1954 0
1953 -1954 0
140 -1954 0
-148 -1954 1955 0
1954 -1955 0
148 -1955 0
-138 -139 1956 0
138 -1956 0
139 -1956 0
-146 -1956 1957 0
1956 -1957 0
146 -1957 0
-154 -1957 1958 0
1957 -1958 0
154 -1958 0
1955 1958 -1959 0
-1958 1959 0
-1955 1959 0
1952 1959 -1960 0
-1959 1960 0
-1952 1960 0
1949 1960 -1961 0
-1960 1961 0
-1949 1961 0
1946 1961 -1962 0
-1961 1962 0
-1946 1962 0
1943 1962 -1963 0
-1962 1963 0
-1943 1963 0
1940 1963 -1964 0
-1963 1964 0
-1940 1964 0
1937 1964 -1965 0
-1964 1965 0
-1937 1965 0
1934 1965 -1966 0
-1965 1966 0
-1934 1966 0
1931 1966 -1967 0
-1966 1967 0
-1931 1967 0
1928 1967 -1968 0
-1967 1968 0
-1928 1968 0
1925 1968 -1969 0
-1968 1969 0
-1925 1969 0
1922 1969 -1970 0
-1969 1970 0
-1922 1970 0
1919 1970 -1971 0
-1970 1971 0
-1919 1971 0
1916 1971 -1972 0
-1971 1972 0
-1916 1972 0
1913 1972 -1973 0
-1972 1973 0
-1913 1973 0
1910 1973 -1974 0
-1973 1974 0
-1910 1974 0
1907 1974 -1975 0
-1974 1975 0
-1907 1975 0
1904 1975 -1976 0
-1975 1976 0
-1904 1976 0
1901 1976 -1977 0
-1976 1977 0
-1901 1977 0
1898 1977 -1978 0
-1977 1978 0
-1898 1978 0
1895 1978 -1979 0
-1978 1979 0
-1895 1979 0
1892 1979 -1980 0
-1979 1980 0
-1892 1980 0
1889 1980 0
-4 1981 0
4 -1981 0
-7 -1981 1982 0
1981 -1982 0
7 -1982 0
-14 -1982 1983 0
1982 -1983 0
14 -1983 0
-6 -10 1984 0
6 -1984 0
10 -1984 0
-13 -1984 1985 0
1984 -1985 0
13 -1985 0
-20 -1985 1986 0
1985 -1986 0
20 -1986 0
-12 -16 1987 0
12 -1987 0
16 -1987 0
-19 -1987 1988 0
1987 -1988 0
19 -1988 0
-26 -1988 1989 0
1988 -1989 0
26 -1989 0
-18 -22 1990 0
18 -1990 0
22 -1990 0
-25 -1990 1991 0
1990 -1991 0
25 -1991 0
-32 -1991 1992 0
1991 -1992 0
32 -1992 0
-24 -28 1993 0
24 -1993 0
28 -1993 0
-31 -1993 1994 0
1993 -1994 0
31 -1994 0
-38 -1994 1995 0
1994 -1995 0
38 -1995 0
-30 -34 1996 0
30 -1996 0
34 -1996 0
-37 -1996 1997 0
1996 -1997 0
37 -1997 0
-44 -1997 1998 0
1997 -1998 0
44 -1998 0
-36 -40 1999 0
36 -1999 0
40 -1999 0
-43 -1999 2000 0
1999 -2000 0
43 -2000 0
-50 -2000 2001 0
2000 -2001 0
50 -2001 0
-42 -46 2002 0
42 -2002 0
46 -2002 0
-49 -2002 2003 0
2002 -2003 0
49 -2003 0
-56 -2003 2004 0
2003 -2004 0
56 -2004 0
-48 -52 2005 0
48 -2005 0
52 -2005 0
-55 -2005 2006 0
2005 -2006 0
55 -2006 0
-62 -2006 2007 0
2006 -2007 0
62 -2007 0
-54 -58 2008 0
54 -2008 0
58 -2008 0
-61 -2008 2009 0
2008 -2009 0
61 -2009 0
-68 -2009 2010 0
2009 -2010 0
68 -2010 0
-60 -64 2011 0
60 -2011 0
64 -2011 0
-67 -2011 2012 0
2011 -2012 0
67 -2012 0
-74 -2012 2013 0
2012 -2013 0
74 -2013 0
-66 -70 2014 0
66 -2014 0
70 -2014 0
-73 -2014 2015 0
2014 -2015 0
73 -2015 0
-80 -2015 2016 0
2015 -2016 0
80 -2016 0
-72 -76 2017 0
72 -2017 0
76 -2017 0
-79 -2017 2018 0
2017 -2018 0
79 -2018 0
-86 -2018 2019 0
2018 -2019 0
86 -2019 0
-78 -82 2020 0
78 -2020 0
82 -2020 0
-85 -2020 2021 0
2020 -2021 0
85 -2021 0
-92 -2021 2022 0
2021 -2022 0
92 -2022 0
-84 -88 2023 0
84 -2023 0
88 -2023 0
-91 -2023 2024 0
2023 -2024 0
91 -2024 0
-98 -2024 2025 0
2024 -2025 0
98 -2025 0
-90 -94 2026 0
90 -2026 0
94 -2026 0
-97 -2026 2027 0
2026 -2027 0
97 -2027 0
-104 -2027 2028 0
2027 -2028 0
104 -2028 0
-96 -100 2029 0
96 -2029 0
100 -2029 0
-103 -2029 2030 0
2029 -2030 0
103 -2030 0
-110 -2030 2031 0
2030 -2031 0
110 -2031 0
-102 -106 2032 0
102 -2032 0
106 -2032 0
-109 -2032 2033 0
2032 -2033 0
109 -2033 0
-116 -2033 2034 0
2033 -2034 0
116 -2034 0
-108 -112 2035 0
108 -2035 0
112 -2035 0
-115 -2035 2036 0
2035 -2036 0
115 -2036 0
-122 -2036 2037 0
2036 -2037 0
122 -2037 0
-114 -118 2038 0
114 -2038 0
118 -2038 0
-121 -2038 2039 0
2038 -2039 0
121 -2039 0
-128 -2039 2040 0
2039 -2040 0
128 -2040 0
-120 -124 2041 0
120 -2041 0
124 -2041 0
-127 -2041 2042 0
2041 -2042 0
127 -2042 0
-134 -2042 2043 0
2042 -2043 0
134 -2043 0
-126 -130 2044 0
126 -2044 0
130 -2044 0
-133 -2044 2045 0
2044 -2045 0
133 -2045 0
-140 -2045 2046 0
2045 -2046 0
140 -2046 0
-132 -136 2047 0
132 -2047 0
136 -2047 0
-139 -2047 2048 0
2047 -2048 0
139 -2048 0
-146 -2048 2049 0
2048 -2049 0
146 -2049 0
-138 -142 2050 0
138 -2050 0
142 -2050 0
-145 -2050 2051 0
2050 -2051 0
145 -2051 0
-152 -2051 2052 0
2051 -2052 0
152 -2052 0
2049 2052 -2053 0
-2052 2053 0
-2049 2053 0
2046 2053 -2054 0
-2053 2054 0
-2046 2054 0
2043 2054 -2055 0
-2054 2055 0
-2043 2055 0
2040 2055 -2056 0
-2055 2056 0
-2040 2056 0
2037 2056 -2057 0
-2056 2057 0
-2037 2057 0
2034 2057 -2058 0
-2057 2058 0
-2034 2058 0
2031 2058 -2059 0
-2058 2059 0
-2031 2059 0
2028 2059 -2060 0
-2059 2060 0
-2028 2060 0
2025 2060 -2061 0
-2060 2061 0
-2025 2061 0
2022 2061 -2062 0
-2061 2062 0
-2022 2062 0
2019 2062 -2063 0
-2062 2063 0
-2019 2063 0
2016 2063 -2064 0
-2063 2064 0
-2016 2064 0
2013 2064 -2065 0
-2064 2065 0
-2013 2065 0
2010 2065 -2066 0
-2065 2066 0
-2010 2066 0
2007 2066 -2067 0
-2066 2067 0
-2007 2067 0
2004 2067 -2068 0
-2067 2068 0
-2004 2068 0
2001 2068 -2069 0
-2068 2069 0
-2001 2069 0
1998 2069 -2070 0
-2069 2070 0
-1998 2070 0
1995 2070 -2071 0
-2070 2071 0
-1995 2071 0
1992 2071 -2072 0
-2071 2072 0
-1992 2072 0
1989 2072 -2073 0
-2072 2073 0
-1989 2073 0
1986 2073 -2074 0
-2073 2074 0
-1986 2074 0
1983 2074 0
-4 2075 0
4 -2075 0
-8 -2075 2076 0
2075 -2076 0
8 -2076 0
-13 -2076 2077 0
2076 -2077 0
13 -2077 0
-6 -10 2078 0
6 -2078 0
10 -2078 0
-14 -2078 2079 0
2078 -2079 0
14 -2079 0
-19 -2079 2080 0
2079 -2080 0
19 -2080 0
-12 -16 2081 0
12 -2081 0
16 -2081 0
-20 -2081 2082 0
2081 -2082 0
20 -2082 0
-25 -2082 2083 0
2082 -2083 0
25 -2083 0
-18 -22 2084 0
18 -2084 0
22 -2084 0
-26 -2084 2085 0
2084 -2085 0
26 -2085 0
-31 -2085 2086 0
2085 -2086 0
31 -2086 0
-24 -28 2087 0
24 -2087 0
28 -2087 0
-32 -2087 2088 0
2087 -2088 0
32 -2088 0
-37 -2088 2089 0
2088 -2089 0
37 -2089 0
-30 -34 2090 0
30 -2090 0
34 -2090 0
-38 -2090 2091 0
2090 -2091 0
38 -2091 0
-43 -2091 2092 0
2091 -2092 0
43 -2092 0
-36 -40 2093 0
36 -2093 0
40 -2093 0
-44 -2093 2094 0
2093 -2094 0
44 -2094 0
-49 -2094 2095 0
2094 -2095 0
49 -2095 0
-42 -46 2096 0
42 -2096 0
46 -2096 0
-50 -2096 2097 0
2096 -2097 0
50 -2097 0
-55 -2097 2098 0
2097 -2098 0
55 -2098 0
-48 -52 2099 0
48 -2099 0
52 -2099 0
-56 -2099 2100 0
2099 -2100 0
56 -2100 0
-61 -2100 2101 0
2100 -2101 0
61 -2101 0
-54 -58 2102 0
54 -2102 0
58 -2102 0
-62 -2102 2103 0
2102 -2103 0
62 -2103 0
-67 -2103 2104 0
2103 -2104 0
67 -2104 0
-60 -64 2105 0
60 -2105 0
64 -2105 0
-68 -2105 2106 0
2105 -2106 0
68 -2106 0
-73 -2106 2107 0
2106 -2107 0
73 -2107 0
-66 -70 2108 0
66 -2108 0
70 -2108 0
-74 -2108 2109 0
2108 -2109 0
74 -2109 0
-79 -2109 2110 0
2109 -2110 0
79 -2110 0
-72 -76 2111 0
72 -2111 0
76 -2111 0
-80 -2111 2112 0
2111 -2112 0
80 -2112 0
-85 -2112 2113 0
2112 -2113 0
85 -2113 0
-78 -82 2114 0
78 -2114 0
82 -2114 0
-86 -2114 2115 0
2114 -2115 0
86 -2115 0
-91 -2115 2116 0
2115 -2116 0
91 -2116 0
-84 -88 2117 0
84 -2117 0
88 -2117 0
-92 -2117 2118 0
2117 -2118 0
92 -2118 0
-97 -2118 2119 0
2118 -2119 0
97 -2119 0
-90 -94 2120 0
90 -2120 0
94 -2120 0
-98 -2120 2121 0
2120 -2121 0
98 -2121 0
-103 -2121 2122 0
2121 -2122 0
103 -2122 0
-96 -100 2123 0
96 -2123 0
100 -2123 0
-104 -2123 2124 0
2123 -2124 0
104 -2124 0
-109 -2124 2125 0
2124 -2125 0
109 -2125 0
-102 -106 2126 0
102 -2126 0
106 -2126 0
-110 -2126 2127 0
2126 -2127 0
110 -2127 0
-115 -2127 2128 0
2127 -2128 0
115 -2128 0
-108 -112 2129 0
108 -2129 0
112 -2129 0
-116 -2129 2130 0
2129 -2130 0
116 -2130 0
-121 -2130 2131 0
2130 -2131 0
121 -2131 0
-114 -118 2132 0
114 -2132 0
118 -2132 0
-122 -2132 2133 0
2132 -2133 0
122 -2133 0
-127 -2133 2134 0
2133 -2134 0
127 -2134 0
-120 -124 2135 0
120 -2135 0
124 -2135 0
-128 -2135 2136 0
2135 -2136 0
128 -2136 0
-133 -2136 2137 0
2136 -2137 0
133 -2137 0
-126 -130 2138 0
126 -2138 0
130 -2138 0
-134 -2138 2139 0
2138 -2139 0
134 -2139 0
-139 -2139 2140 0
2139 -2140 0
139 -2140 0
-132 -136 2141 0
132 -2141 0
136 -2141 0
-140 -2141 2142 0
2141 -2142 0
140 -2142 0
-145 -2142 2143 0
2142 -2143 0
145 -2143 0
-138 -142 2144 0
138 -2144 0
142 -2144 0
-146 -2144 2145 0
2144 -2145 0
146 -2145 0
-151 -2145 2146 0
2145 -2146 0
151 -2146 0
2143 2146 -2147 0
-2146 2147 0
-2143 2147 0
2140 2147 -2148 0
-2147 2148 0
-2140 2148 0
2137 2148 -2149 0
-2148 2149 0
-2137 2149 0
2134 2149 -2150 0
-2149 2150 0
-2134 2150 0
2131 2150 -2151 0
-2150 2151 0
-2131 2151 0
2128 2151 -2152 0
-2151 2152 0
-2128 2152 0
2125 2152 -2153 0
-2152 2153 0
-2125 2153 0
2122 2153 -2154 0
-2153 2154 0
-2122 2154 0
2119 2154 -2155 0
-2154 2155 0
-2119 2155 0
2116 2155 -2156 0
-2155 2156 0
-2116 2156 0
2113 2156 -2157 0
-2156 2157 0
-2113 2157 0
2110 2157 -2158 0
-2157 2158 0
-2110 2158 0
2107 2158 -2159 0
-2158 2159 0
-2107 2159 0
2104 2159 -2160 0
-2159 2160 0
-2104 2160 0
2101 2160 -2161 0
-2160 2161 0
-2101 2161 0
2098 2161 -2162 0
-2161 2162 0
-2098 2162 0
2095 2162 -2163 0
-2162 2163 0
-2095 2163 0
2092 2163 -2164 0
-2163 2164 0
-2092 2164 0
2089 2164 -2165 0
-2164 2165 0
-2089 2165 0
2086 2165 -2166 0
-2165 2166 0
-2086 2166 0
2083 2166 -2167 0
-2166 2167 0
-2083 2167 0
2080 2167 -2168 0
-2167 2168 0
-2080 2168 0
2077 2168 0
-2 2169 0
2 -2169 0
-7 -2169 2170 0
2169 -2170 0
7 -2170 0
-16 -2170 2171 0
2170 -2171 0
16 -2171 0
-6 -8 2172 0
6 -2172 0
8 -2172 0
-13 -2172 2173 0
2172 -2173 0
13 -2173 0
-22 -2173 2174 0
2173 -2174 0
22 -2174 0
-12 -14 2175 0
12 -2175 0
14 -2175 0
-19 -2175 2176 0
2175 -2176 0
19 -2176 0
-28 -2176 2177 0
2176 -2177 0
28 -2177 0
-18 -20 2178 0
18 -2178 0
20 -2178 0
-25 -2178 2179 0
2178 -2179 0
25 -2179 0
-34 -2179 2180 0
2179 -2180 0
34 -2180 0
-24 -26 2181 0
24 -2181 0
26 -2181 0
-31 -2181 2182 0
2181 -2182 0
31 -2182 0
-40 -2182 2183 0
2182 -2183 0
40 -2183 0
-30 -32 2184 0
30 -2184 0
32 -2184 0
-37 -2184 2185 0
2184 -2185 0
37 -2185 0
-46 -2185 2186 0
2185 -2186 0
46 -2186 0
-36 -38 2187 0
36 -2187 0
38 -2187 0
-43 -2187 2188 0
2187 -2188 0
43 -2188 0
-52 -2188 2189 0
2188 -2189 0
52 -2189 0
-42 -44 2190 0
42 -2190 0
44 -2190 0
-49 -2190 2191 0
2190 -2191 0
49 -2191 0
-58 -2191 2192 0
2191 -2192 0
58 -2192 0
-48 -50 2193 0
48 -2193 0
50 -2193 0
-55 -2193 2194 0
2193 -2194 0
55 -2194 0
-64 -2194 2195 0
2194 -2195 0
64 -2195 0
-54 -56 2196 0
54 -2196 0
56 -2196 0
-61 -2196 2197 0
2196 -2197 0
61 -2197 0
-70 -2197 2198 0
2197 -2198 0
70 -2198 0
-60 -62 2199 0
60 -2199 0
62 -2199 0
-67 -2199 2200 0
2199 -2200 0
67 -2200 0
-76 -2200 2201 0
2200 -2201 0
76 -2201 0
-66 -68 2202 0
66 -2202 0
68 -2202 0
-73 -2202 2203 0
2202 -2203 0
73 -2203 0
-82 -2203 2204 0
2203 -2204 0
82 -2204 0
-72 -74 2205 0
72 -2205 0
74 -2205 0
-79 -2205 2206 0
2205 -2206 0
79 -2206 0
-88 -2206 2207 0
2206 -2207 0
88 -2207 0
-78 -80 2208 0
78 -2208 0
80 -2208 0
-85 -2208 2209 0
2208 -2209 0
85 -2209 0
-94 -2209 2210 0
2209 -2210 0
94 -2210 0
-84 -86 2211 0
84 -2211 0
86 -2211 0
-91 -2211 2212 0
2211 -2212 0
91 -2212 0
-100 -2212 2213 0
2212 -2213 0
100 -2213 0
-90 -92 2214 0
90 -2214 0
92 -2214 0
-97 -2214 2215 0
2214 -2215 0
97 -2215 0
-106 -2215 2216 0
2215 -2216 0
106 -2216 0
-96 -98 2217 0
96 -2217 0
98 -2217 0
-103 -2217 2218 0
2217 -2218 0
103 -2218 0
-112 -2218 2219 0
2218 -2219 0
112 -2219 0
-102 -104 2220 0
102 -2220 0
104 -2220 0
-109 -2220 2221 0
2220 -2221 0
109 -2221 0
-118 -2221 2222 0
2221 -2222 0
118 -2222 0
-108 -110 2223 0
108 -2223 0
110 -2223 0
-115 -2223 2224 0
2223 -2224 0
115 -2224 0
-124 -2224 2225 0
2224 -2225 0
124 -2225 0
-114 -116 2226 0
114 -2226 0
116 -2226 0
-121 -2226 2227 0
2226 -2227 0
121 -2227 0
-130 -2227 2228 0
2227 -2228 0
130 -2228 0
-120 -122 2229 0
120 -2229 0
122 -2229 0
-127 -2229 2230 0
2229 -2230 0
127 -2230 0
-136 -2230 2231 0
2230 -2231 0
136 -2231 0
-126 -128 2232 0
126 -2232 0
128 -2232 0
-133 -2232 2233 0
2232 -2233 0
133 -2233 0
-142 -2233 2234 0
2233 -2234 0
142 -2234 0
-132 -134 2235 0
132 -2235 0
134 -2235 0
-139 -2235 2236 0
2235 -2236 0
139 -2236 0
-148 -2236 2237 0
2236 -2237 0
148 -2237 0
-138 -140 2238 0
138 -2238 0
140 -2238 0
-145 -2238 2239 0
2238 -2239 0
145 -2239 0
-154 -2239 2240 0
2239 -2240 0
154 -2240 0
2237 2240 -2241 0
-2240 2241 0
-2237 2241 0
2234 2241 -2242 0
-2241 2242 0
-2234 2242 0
2231 2242 -2243 0
-2242 2243 0
-2231 2243 0
2228 2243 -2244 0
-2243 2244 0
-2228 2244 0
2225 2244 -2245 0
-2244 2245 0
-2225 2245 0
2222 2245 -2246 0
-2245 2246 0
-2222 2246 0
2219 2246 -2247 0
-2246 2247 0
-2219 2247 0
2216 2247 -2248 0
-2247 2248 0
-2216 2248 0
2213 2248 -2249 0
-2248 2249 0
-2213 2249 0
2210 2249 -2250 0
-2249 2250 0
-2210 2250 0
2207 2250 -2251 0
-2250 2251 0
-2207 2251 0
2204 2251 -2252 0
-2251 2252 0
-2204 2252 0
2201 2252 -2253 0
-2252 2253 0
-2201 2253 0
2198 2253 -2254 0
-2253 2254 0
-2198 2254 0
2195 2254 -2255 0
-2254 2255 0
-2195 2255 0
2192 2255 -2256 0
-2255 2256 0
-2192 2256 0
2189 2256 -2257 0
-2256 2257 0
-2189 2257 0
2186 2257 -2258 0
-2257 2258 0
-2186 2258 0
2183 2258 -2259 0
-2258 2259 0
-2183 2259 0
2180 2259 -2260 0
-2259 2260 0
-2180 2260 0
2177 2260 -2261 0
-2260 2261 0
-2177 2261 0
2174 2261 -2262 0
-2261 2262 0
-2174 2262 0
2171 2262 0
-2 2263 0
2 -2263 0
-10 -2263 2264 0
2263 -2264 0
10 -2264 0
-13 -2264 2265 0
2264 -2265 0
13 -2265 0
-6 -8 2266 0
6 -2266 0
8 -2266 0
-16 -2266 2267 0
2266 -2267 0
16 -2267 0
-19 -2267 2268 0
2267 -2268 0
19 -2268 0
-12 -14 2269 0
12 -2269 0
14 -2269 0
-22 -2269 2270 0
2269 -2270 0
22 -2270 0
-25 -2270 2271 0
2270 -2271 0
25 -2271 0
-18 -20 2272 0
18 -2272 0
20 -2272 0
-28 -2272 2273 0
2272 -2273 0
28 -2273 0
-31 -2273 2274 0
2273 -2274 0
31 -2274 0
-24 -26 2275 0
24 -2275 0
26 -2275 0
-34 -2275 2276 0
2275 -2276 0
34 -2276 0
-37 -2276 2277 0
2276 -2277 0
37 -2277 0
-30 -32 2278 0
30 -2278 0
32 -2278 0
-40 -2278 2279 0
2278 -2279 0
40 -2279 0
-43 -2279 2280 0
2279 -2280 0
43 -2280 0
-36 -38 2281 0
36 -2281 0
38 -2281 0
-46 -2281 2282 0
2281 -2282 0
46 -2282 0
-49 -2282 2283 0
2282 -2283 0
49 -2283 0
-42 -44 2284 0
42 -2284 0
44 -2284 0
-52 -2284 2285 0
2284 -2285 0
52 -2285 0
-55 -2285 2286 0
2285 -2286 0
55 -2286 0
-48 -50 2287 0
48 -2287 0
50 -2287 0
-58 -2287 2288 0
2287 -2288 0
58 -2288 0
-61 -2288 2289 0
2288 -2289 0
61 -2289 0
-54 -56 2290 0
54 -2290 0
56 -2290 0
-64 -2290 2291 0
2290 -2291 0
64 -2291 0
-67 -2291 2292 0
2291 -2292 0
67 -2292 0
-60 -62 2293 0
60 -2293 0
62 -2293 0
-70 -2293 2294 0
2293 -2294 0
70 -2294 0
-73 -2294 2295 0
2294 -2295 0
73 -2295 0
-66 -68 2296 0
66 -2296 0
68 -2296 0
-76 -2296 2297 0
2296 -2297 0
76 -2297 0
-79 -2297 2298 0
2297 -2298 0
79 -2298 0
-72 -74 2299 0
72 -2299 0
74 -2299 0
-82 -2299 2300 0
2299 -2300 0
82 -2300 0
-85 -2300 2301 0
2300 -2301 0
85 -2301 0
-78 -80 2302 0
78 -2302 0
80 -2302 0
-88 -2302 2303 0
2302 -2303 0
88 -2303 0
-91 -2303 2304 0
2303 -2304 0
91 -2304 0
-84 -86 2305 0
84 -2305 0
86 -2305 0
-94 -2305 2306 0
2305 -2306 0
94 -2306 0
-97 -2306 2307 0
2306 -2307 0
97 -2307 0
-90 -92 2308 0
90 -2308 0
92 -2308 0
-100 -2308 2309 0
2308 -2309 0
100 -2309 0
-103 -2309 2310 0
2309 -2310 0
103 -2310 0
-96 -98 2311 0
96 -2311 0
98 -2311 0
-106 -2311 2312 0
2311 -2312 0
106 -2312 0
-109 -2312 2313 0
2312 -2313 0
109 -2313 0
-102 -104 2314 0
102 -2314 0
104 -2314 0
-112 -2314 2315 0
2314 -2315 0
112 -2315 0
-115 -2315 2316 0
2315 -2316 0
115 -2316 0
-108 -110 2317 0
108 -2317 0
110 -2317 0
-118 -2317 2318 0
2317 -2318 0
118 -2318 0
-121 -2318 2319 0
2318 -2319 0
121 -2319 0
-114 -116 2320 0
114 -2320 0
116 -2320 0
-124 -2320 2321 0
2320 -2321 0
124 -2321 0
-127 -2321 2322 0
2321 -2322 0
127 -2322 0
-120 -122 2323 0
120 -2323 0
122 -2323 0
-130 -2323 2324 0
2323 -2324 0
130 -2324 0
-133 -2324 2325 0
2324 -2325 0
133 -2325 0
-126 -128 2326 0
126 -2326 0
128 -2326 0
-136 -2326 2327 0
2326 -2327 0
136 -2327 0
-139 -2327 2328 0
2327 -2328 0
139 -2328 0
-132 -134 2329 0
132 -2329 0
134 -2329 0
-142 -2329 2330 0
2329 -2330 0
142 -2330 0
-145 -2330 2331 0
2330 -2331 0
145 -2331 0
-138 -140 2332 0
138 -2332 0
140 -2332 0
-148 -2332 2333 0
2332 -2333 0
148 -2333 0
-151 -2333 2334 0
2333 -2334 0
151 -2334 0
2331 2334 -2335 0
-2334 2335 0
-2331 2335 0
2328 2335 -2336 0
-2335 2336 0
-2328 2336 0
2325 2336 -2337 0
-2336 2337 0
-2325 2337 0
2322 2337 -2338 0
-2337 2338 0
-2322 2338 0
2319 2338 -2339 0
-2338 2339 0
-2319 2339 0
2316 2339 -2340 0
-2339 2340 0
-2316 2340 0
2313 2340 -2341 0
-2340 2341 0
-2313 2341 0
2310 2341 -2342 0
-2341 2342 0
-2310 2342 0
2307 2342 -2343 0
-2342 2343 0
-2307 2343 0
2304 2343 -2344 0
-2343 2344 0
-2304 2344 0
2301 2344 -2345 0
-2344 2345 0
-2301 2345 0
2298 2345 -2346 0
-2345 2346 0
-2298 2346 0
2295 2346 -2347 0
-2346 2347 0
-2295 2347 0
2292 2347 -2348 0
-2347 2348 0
-2292 2348 0
2289 2348 -2349 0
-2348 2349 0
-2289 2349 0
2286 2349 -2350 0
-2349 2350 0
-2286 2350 0
2283 2350 -2351 0
-2350 2351 0
-2283 2351 0
2280 2351 -2352 0
-2351 2352 0
-2280 2352 0
2277 2352 -2353 0
-2352 2353 0
-2277 2353 0
2274 2353 -2354 0
-2353 2354 0
-2274 2354 0
2271 2354 -2355 0
-2354 2355 0
-2271 2355 0
2268 2355 -2356 0
-2355 2356 0
-2268 2356 0
2265 2356 0
