c P(25,3) is 124
c P(28,2) is 140
c P(31,3) is 160
c P(15,2) is 62
c P(13,2) is 50
c P(31,2) is 158
c P(30,1) is 151
c P(22,3) is 106
c P(8,3) is 22
c P(10,3) is 34
c P(12,4) is 48
c P(18,2) is 80
c P(26,1) is 127
c P(20,2) is 92
c P(28,1) is 139
c P(5,1) is 1
c P(29,3) is 148
c P(7,4) is 18
c P(30,2) is 152
c P(25,2) is 122
c P(19,3) is 88
c P(9,4) is 30
c P(6,3) is 10
c P(9,1) is 25
c P(27,4) is 138
c P(25,1) is 121
c P(30,4) is 156
c P(15,1) is 61
c P(20,3) is 94
c P(7,2) is 14
c P(32,1) is 163
c P(8,4) is 24
c P(7,3) is 16
c P(32,3) is 166
c P(23,3) is 112
c P(9,3) is 28
c P(31,4) is 162
c P(26,3) is 130
c P(24,4) is 120
c P(16,3) is 70
c P(28,3) is 142
c P(19,4) is 90
c P(25,4) is 126
c P(18,4) is 84
c P(5,3) is 4
c P(20,4) is 96
c P(8,1) is 19
c P(14,2) is 56
c P(14,3) is 58
c P(31,1) is 157
c P(23,2) is 110
c P(16,1) is 67
c P(24,2) is 116
c P(30,3) is 154
c P(12,2) is 44
c P(6,1) is 7
c P(11,1) is 37
c P(6,2) is 8
c P(28,4) is 144
c P(16,2) is 68
c P(32,4) is 168
c P(16,4) is 72
c P(21,1) is 97
c P(17,4) is 78
c P(17,2) is 74
c P(22,1) is 103
c P(5,4) is 6
c P(27,1) is 133
c P(24,1) is 115
c P(18,3) is 82
c P(12,3) is 46
c P(9,2) is 26
c P(15,3) is 64
c P(13,4) is 54
c P(6,4) is 12
c P(21,4) is 102
c P(32,2) is 164
c P(14,4) is 60
c P(29,2) is 146
c P(12,1) is 43
c P(15,4) is 66
c P(21,2) is 98
c P(7,1) is 13
c P(20,1) is 91
c P(27,3) is 136
c P(5,2) is 2
c P(13,1) is 49
c P(18,1) is 79
c P(23,1) is 109
c P(21,3) is 100
c P(19,1) is 85
c P(14,1) is 55
c P(23,4) is 114
c P(10,1) is 31
c P(22,2) is 104
c P(11,3) is 40
c P(19,2) is 86
c P(17,3) is 76
c P(24,3) is 118
c P(26,2) is 128
c P(10,4) is 36
c P(13,3) is 52
c P(10,2) is 32
c P(17,1) is 73
c P(8,2) is 20
c P(11,2) is 38
c P(29,4) is 150
c P(11,4) is 42
c P(26,4) is 132
c P(27,2) is 134
c P(29,1) is 145
c P(22,4) is 108
p cnf 2560 7463
1 2 -3 0
-1 3 0
-2 3 0
-1 -2 0
4 3 -5 0
-3 5 0
-4 5 0
-4 -3 0
6 5 0
-6 -5 0
7 8 -9 0
-7 9 0
-8 9 0
-7 -8 0
10 9 -11 0
-9 11 0
-10 11 0
-10 -9 0
12 11 0
-12 -11 0
13 14 -15 0
-13 15 0
-14 15 0
-13 -14 0
16 15 -17 0
-15 17 0
-16 17 0
-16 -15 0
18 17 0
-18 -17 0
19 20 -21 0
-19 21 0
-20 21 0
-19 -20 0
22 21 -23 0
-21 23 0
-22 23 0
-22 -21 0
24 23 0
-24 -23 0
25 26 -27 0
-25 27 0
-26 27 0
-25 -26 0
28 27 -29 0
-27 29 0
-28 29 0
-28 -27 0
30 29 0
-30 -29 0
31 32 -33 0
-31 33 0
-32 33 0
-31 -32 0
34 33 -35 0
-33 35 0
-34 35 0
-34 -33 0
36 35 0
-36 -35 0
37 38 -39 0
-37 39 0
-38 39 0
-37 -38 0
40 39 -41 0
-39 41 0
-40 41 0
-40 -39 0
42 41 0
-42 -41 0
43 44 -45 0
-43 45 0
-44 45 0
-43 -44 0
46 45 -47 0
-45 47 0
-46 47 0
-46 -45 0
48 47 0
-48 -47 0
49 50 -51 0
-49 51 0
-50 51 0
-49 -50 0
52 51 -53 0
-51 53 0
-52 53 0
-52 -51 0
54 53 0
-54 -53 0
55 56 -57 0
-55 57 0
-56 57 0
-55 -56 0
58 57 -59 0
-57 59 0
-58 59 0
-58 -57 0
60 59 0
-60 -59 0
61 62 -63 0
-61 63 0
-62 63 0
-61 -62 0
64 63 -65 0
-63 65 0
-64 65 0
-64 -63 0
66 65 0
-66 -65 0
67 68 -69 0
-67 69 0
-68 69 0
-67 -68 0
70 69 -71 0
-69 71 0
-70 71 0
-70 -69 0
72 71 0
-72 -71 0
73 74 -75 0
-73 75 0
-74 75 0
-73 -74 0
76 75 -77 0
-75 77 0
-76 77 0
-76 -75 0
78 77 0
-78 -77 0
79 80 -81 0
-79 81 0
-80 81 0
-79 -80 0
82 81 -83 0
-81 83 0
-82 83 0
-82 -81 0
84 83 0
-84 -83 0
85 86 -87 0
-85 87 0
-86 87 0
-85 -86 0
88 87 -89 0
-87 89 0
-88 89 0
-88 -87 0
90 89 0
-90 -89 0
91 92 -93 0
-91 93 0
-92 93 0
-91 -92 0
94 93 -95 0
-93 95 0
-94 95 0
-94 -93 0
96 95 0
-96 -95 0
97 98 -99 0
-97 99 0
-98 99 0
-97 -98 0
100 99 -101 0
-99 101 0
-100 101 0
-100 -99 0
102 101 0
-102 -101 0
103 104 -105 0
-103 105 0
-104 105 0
-103 -104 0
106 105 -107 0
-105 107 0
-106 107 0
-106 -105 0
108 107 0
-108 -107 0
109 110 -111 0
-109 111 0
-110 111 0
-109 -110 0
112 111 -113 0
-111 113 0
-112 113 0
-112 -111 0
114 113 0
-114 -113 0
115 116 -117 0
-115 117 0
-116 117 0
-115 -116 0
118 117 -119 0
-117 119 0
-118 119 0
-118 -117 0
120 119 0
-120 -119 0
121 122 -123 0
-121 123 0
-122 123 0
-121 -122 0
124 123 -125 0
-123 125 0
-124 125 0
-124 -123 0
126 125 0
-126 -125 0
127 128 -129 0
-127 129 0
-128 129 0
-127 -128 0
130 129 -131 0
-129 131 0
-130 131 0
-130 -129 0
132 131 0
-132 -131 0
133 134 -135 0
-133 135 0
-134 135 0
-133 -134 0
136 135 -137 0
-135 137 0
-136 137 0
-136 -135 0
138 137 0
-138 -137 0
139 140 -141 0
-139 141 0
-140 141 0
-139 -140 0
142 141 -143 0
-141 143 0
-142 143 0
-142 -141 0
144 143 0
-144 -143 0
145 146 -147 0
-145 147 0
-146 147 0
-145 -146 0
148 147 -149 0
-147 149 0
-148 149 0
-148 -147 0
150 149 0
-150 -149 0
151 152 -153 0
-151 153 0
-152 153 0
-151 -152 0
154 153 -155 0
-153 155 0
-154 155 0
-154 -153 0
156 155 0
-156 -155 0
157 158 -159 0
-157 159 0
-158 159 0
-157 -158 0
160 159 -161 0
-159 161 0
-160 161 0
-160 -159 0
162 161 0
-162 -161 0
163 164 -165 0
-163 165 0
-164 165 0
-163 -164 0
166 165 -167 0
-165 167 0
-166 167 0
-166 -165 0
168 167 0
-168 -167 0
-1 -8 169 0
1 -169 0
8 -169 0
-16 -169 170 0
169 -170 0
16 -170 0
-24 -170 171 0
170 -171 0
24 -171 0
-7 -14 172 0
7 -172 0
14 -172 0
-22 -172 173 0
172 -173 0
22 -173 0
-30 -173 174 0
173 -174 0
30 -174 0
-13 -20 175 0
13 -175 0
20 -175 0
-28 -175 176 0
175 -176 0
28 -176 0
-36 -176 177 0
176 -177 0
36 -177 0
-19 -26 178 0
19 -178 0
26 -178 0
-34 -178 179 0
178 -179 0
34 -179 0
-42 -179 180 0
179 -180 0
42 -180 0
-25 -32 181 0
25 -181 0
32 -181 0
-40 -181 182 0
181 -182 0
40 -182 0
-48 -182 183 0
182 -183 0
48 -183 0
-31 -38 184 0
31 -184 0
38 -184 0
-46 -184 185 0
184 -185 0
46 -185 0
-54 -185 186 0
185 -186 0
54 -186 0
-37 -44 187 0
37 -187 0
44 -187 0
-52 -187 188 0
187 -188 0
52 -188 0
-60 -188 189 0
188 -189 0
60 -189 0
-43 -50 190 0
43 -190 0
50 -190 0
-58 -190 191 0
190 -191 0
58 -191 0
-66 -191 192 0
191 -192 0
66 -192 0
-49 -56 193 0
49 -193 0
56 -193 0
-64 -193 194 0
193 -194 0
64 -194 0
-72 -194 195 0
194 -195 0
72 -195 0
-55 -62 196 0
55 -196 0
62 -196 0
-70 -196 197 0
196 -197 0
70 -197 0
-78 -197 198 0
197 -198 0
78 -198 0
-61 -68 199 0
61 -199 0
68 -199 0
-76 -199 200 0
199 -200 0
76 -200 0
-84 -200 201 0
200 -201 0
84 -201 0
-67 -74 202 0
67 -202 0
74 -202 0
-82 -202 203 0
202 -203 0
82 -203 0
-90 -203 204 0
203 -204 0
90 -204 0
-73 -80 205 0
73 -205 0
80 -205 0
-88 -205 206 0
205 -206 0
88 -206 0
-96 -206 207 0
206 -207 0
96 -207 0
-79 -86 208 0
79 -208 0
86 -208 0
-94 -208 209 0
208 -209 0
94 -209 0
-102 -209 210 0
209 -210 0
102 -210 0
-85 -92 211 0
85 -211 0
92 -211 0
-100 -211 212 0
211 -212 0
100 -212 0
-108 -212 213 0
212 -213 0
108 -213 0
-91 -98 214 0
91 -214 0
98 -214 0
-106 -214 215 0
214 -215 0
106 -215 0
-114 -215 216 0
215 -216 0
114 -216 0
-97 -104 217 0
97 -217 0
104 -217 0
-112 -217 218 0
217 -218 0
112 -218 0
-120 -218 219 0
218 -219 0
120 -219 0
-103 -110 220 0
103 -220 0
110 -220 0
-118 -220 221 0
220 -221 0
118 -221 0
-126 -221 222 0
221 -222 0
126 -222 0
-109 -116 223 0
109 -223 0
116 -223 0
-124 -223 224 0
223 -224 0
124 -224 0
-132 -224 225 0
224 -225 0
132 -225 0
-115 -122 226 0
115 -226 0
122 -226 0
-130 -226 227 0
226 -227 0
130 -227 0
-138 -227 228 0
227 -228 0
138 -228 0
-121 -128 229 0
121 -229 0
128 -229 0
-136 -229 230 0
229 -230 0
136 -230 0
-144 -230 231 0
230 -231 0
144 -231 0
-127 -134 232 0
127 -232 0
134 -232 0
-142 -232 233 0
232 -233 0
142 -233 0
-150 -233 234 0
233 -234 0
150 -234 0
-133 -140 235 0
133 -235 0
140 -235 0
-148 -235 236 0
235 -236 0
148 -236 0
-156 -236 237 0
236 -237 0
156 -237 0
-139 -146 238 0
139 -238 0
146 -238 0
-154 -238 239 0
238 -239 0
154 -239 0
-162 -239 240 0
239 -240 0
162 -240 0
-145 -152 241 0
145 -241 0
152 -241 0
-160 -241 242 0
241 -242 0
160 -242 0
-168 -242 243 0
242 -243 0
168 -243 0
240 243 -244 0
-243 244 0
-240 244 0
237 244 -245 0
-244 245 0
-237 245 0
234 245 -246 0
-245 246 0
-234 246 0
231 246 -247 0
-246 247 0
-231 247 0
228 247 -248 0
-247 248 0
-228 248 0
225 248 -249 0
-248 249 0
-225 249 0
222 249 -250 0
-249 250 0
-222 250 0
219 250 -251 0
-250 251 0
-219 251 0
216 251 -252 0
-251 252 0
-216 252 0
213 252 -253 0
-252 253 0
-213 253 0
210 253 -254 0
-253 254 0
-210 254 0
207 254 -255 0
-254 255 0
-207 255 0
204 255 -256 0
-255 256 0
-204 256 0
201 256 -257 0
-256 257 0
-201 257 0
198 257 -258 0
-257 258 0
-198 258 0
195 258 -259 0
-258 259 0
-195 259 0
192 259 -260 0
-259 260 0
-192 260 0
189 260 -261 0
-260 261 0
-189 261 0
186 261 -262 0
-261 262 0
-186 262 0
183 262 -263 0
-262 263 0
-183 263 0
180 263 -264 0
-263 264 0
-180 264 0
177 264 -265 0
-264 265 0
-177 265 0
174 265 -266 0
-265 266 0
-174 266 0
171 266 -267 0
-266 267 0
-171 267 0
267 -268 0
-267 268 0
268 -269 0
-268 269 0
269 -270 0
-269 270 0
-1 -8 271 0
1 -271 0
8 -271 0
-18 -271 272 0
271 -272 0
18 -272 0
-22 -272 273 0
272 -273 0
22 -273 0
-7 -14 274 0
7 -274 0
14 -274 0
-24 -274 275 0
274 -275 0
24 -275 0
-28 -275 276 0
275 -276 0
28 -276 0
-13 -20 277 0
13 -277 0
20 -277 0
-30 -277 278 0
277 -278 0
30 -278 0
-34 -278 279 0
278 -279 0
34 -279 0
-19 -26 280 0
19 -280 0
26 -280 0
-36 -280 281 0
280 -281 0
36 -281 0
-40 -281 282 0
281 -282 0
40 -282 0
-25 -32 283 0
25 -283 0
32 -283 0
-42 -283 284 0
283 -284 0
42 -284 0
-46 -284 285 0
284 -285 0
46 -285 0
-31 -38 286 0
31 -286 0
38 -286 0
-48 -286 287 0
286 -287 0
48 -287 0
-52 -287 288 0
287 -288 0
52 -288 0
-37 -44 289 0
37 -289 0
44 -289 0
-54 -289 290 0
289 -290 0
54 -290 0
-58 -290 291 0
290 -291 0
58 -291 0
-43 -50 292 0
43 -292 0
50 -292 0
-60 -292 293 0
292 -293 0
60 -293 0
-64 -293 294 0
293 -294 0
64 -294 0
-49 -56 295 0
49 -295 0
56 -295 0
-66 -295 296 0
295 -296 0
66 -296 0
-70 -296 297 0
296 -297 0
70 -297 0
-55 -62 298 0
55 -298 0
62 -298 0
-72 -298 299 0
298 -299 0
72 -299 0
-76 -299 300 0
299 -300 0
76 -300 0
-61 -68 301 0
61 -301 0
68 -301 0
-78 -301 302 0
301 -302 0
78 -302 0
-82 -302 303 0
302 -303 0
82 -303 0
-67 -74 304 0
67 -304 0
74 -304 0
-84 -304 305 0
304 -305 0
84 -305 0
-88 -305 306 0
305 -306 0
88 -306 0
-73 -80 307 0
73 -307 0
80 -307 0
-90 -307 308 0
307 -308 0
90 -308 0
-94 -308 309 0
308 -309 0
94 -309 0
-79 -86 310 0
79 -310 0
86 -310 0
-96 -310 311 0
310 -311 0
96 -311 0
-100 -311 312 0
311 -312 0
100 -312 0
-85 -92 313 0
85 -313 0
92 -313 0
-102 -313 314 0
313 -314 0
102 -314 0
-106 -314 315 0
314 -315 0
106 -315 0
-91 -98 316 0
91 -316 0
98 -316 0
-108 -316 317 0
316 -317 0
108 -317 0
-112 -317 318 0
317 -318 0
112 -318 0
-97 -104 319 0
97 -319 0
104 -319 0
-114 -319 320 0
319 -320 0
114 -320 0
-118 -320 321 0
320 -321 0
118 -321 0
-103 -110 322 0
103 -322 0
110 -322 0
-120 -322 323 0
322 -323 0
120 -323 0
-124 -323 324 0
323 -324 0
124 -324 0
-109 -116 325 0
109 -325 0
116 -325 0
-126 -325 326 0
325 -326 0
126 -326 0
-130 -326 327 0
326 -327 0
130 -327 0
-115 -122 328 0
115 -328 0
122 -328 0
-132 -328 329 0
328 -329 0
132 -329 0
-136 -329 330 0
329 -330 0
136 -330 0
-121 -128 331 0
121 -331 0
128 -331 0
-138 -331 332 0
331 -332 0
138 -332 0
-142 -332 333 0
332 -333 0
142 -333 0
-127 -134 334 0
127 -334 0
134 -334 0
-144 -334 335 0
334 -335 0
144 -335 0
-148 -335 336 0
335 -336 0
148 -336 0
-133 -140 337 0
133 -337 0
140 -337 0
-150 -337 338 0
337 -338 0
150 -338 0
-154 -338 339 0
338 -339 0
154 -339 0
-139 -146 340 0
139 -340 0
146 -340 0
-156 -340 341 0
340 -341 0
156 -341 0
-160 -341 342 0
341 -342 0
160 -342 0
-145 -152 343 0
145 -343 0
152 -343 0
-162 -343 344 0
343 -344 0
162 -344 0
-166 -344 345 0
344 -345 0
166 -345 0
342 345 -346 0
-345 346 0
-342 346 0
339 346 -347 0
-346 347 0
-339 347 0
336 347 -348 0
-347 348 0
-336 348 0
333 348 -349 0
-348 349 0
-333 349 0
330 349 -350 0
-349 350 0
-330 350 0
327 350 -351 0
-350 351 0
-327 351 0
324 351 -352 0
-351 352 0
-324 352 0
321 352 -353 0
-352 353 0
-321 353 0
318 353 -354 0
-353 354 0
-318 354 0
315 354 -355 0
-354 355 0
-315 355 0
312 355 -356 0
-355 356 0
-312 356 0
309 356 -357 0
-356 357 0
-309 357 0
306 357 -358 0
-357 358 0
-306 358 0
303 358 -359 0
-358 359 0
-303 359 0
300 359 -360 0
-359 360 0
-300 360 0
297 360 -361 0
-360 361 0
-297 361 0
294 361 -362 0
-361 362 0
-294 362 0
291 362 -363 0
-362 363 0
-291 363 0
288 363 -364 0
-363 364 0
-288 364 0
285 364 -365 0
-364 365 0
-285 365 0
282 365 -366 0
-365 366 0
-282 366 0
279 366 -367 0
-366 367 0
-279 367 0
276 367 -368 0
-367 368 0
-276 368 0
273 368 0
-1 -10 369 0
1 -369 0
10 -369 0
-14 -369 370 0
369 -370 0
14 -370 0
-24 -370 371 0
370 -371 0
24 -371 0
-7 -16 372 0
7 -372 0
16 -372 0
-20 -372 373 0
372 -373 0
20 -373 0
-30 -373 374 0
373 -374 0
30 -374 0
-13 -22 375 0
13 -375 0
22 -375 0
-26 -375 376 0
375 -376 0
26 -376 0
-36 -376 377 0
376 -377 0
36 -377 0
-19 -28 378 0
19 -378 0
28 -378 0
-32 -378 379 0
378 -379 0
32 -379 0
-42 -379 380 0
379 -380 0
42 -380 0
-25 -34 381 0
25 -381 0
34 -381 0
-38 -381 382 0
381 -382 0
38 -382 0
-48 -382 383 0
382 -383 0
48 -383 0
-31 -40 384 0
31 -384 0
40 -384 0
-44 -384 385 0
384 -385 0
44 -385 0
-54 -385 386 0
385 -386 0
54 -386 0
-37 -46 387 0
37 -387 0
46 -387 0
-50 -387 388 0
387 -388 0
50 -388 0
-60 -388 389 0
388 -389 0
60 -389 0
-43 -52 390 0
43 -390 0
52 -390 0
-56 -390 391 0
390 -391 0
56 -391 0
-66 -391 392 0
391 -392 0
66 -392 0
-49 -58 393 0
49 -393 0
58 -393 0
-62 -393 394 0
393 -394 0
62 -394 0
-72 -394 395 0
394 -395 0
72 -395 0
-55 -64 396 0
55 -396 0
64 -396 0
-68 -396 397 0
396 -397 0
68 -397 0
-78 -397 398 0
397 -398 0
78 -398 0
-61 -70 399 0
61 -399 0
70 -399 0
-74 -399 400 0
399 -400 0
74 -400 0
-84 -400 401 0
400 -401 0
84 -401 0
-67 -76 402 0
67 -402 0
76 -402 0
-80 -402 403 0
402 -403 0
80 -403 0
-90 -403 404 0
403 -404 0
90 -404 0
-73 -82 405 0
73 -405 0
82 -405 0
-86 -405 406 0
405 -406 0
86 -406 0
-96 -406 407 0
406 -407 0
96 -407 0
-79 -88 408 0
79 -408 0
88 -408 0
-92 -408 409 0
408 -409 0
92 -409 0
-102 -409 410 0
409 -410 0
102 -410 0
-85 -94 411 0
85 -411 0
94 -411 0
-98 -411 412 0
411 -412 0
98 -412 0
-108 -412 413 0
412 -413 0
108 -413 0
-91 -100 414 0
91 -414 0
100 -414 0
-104 -414 415 0
414 -415 0
104 -415 0
-114 -415 416 0
415 -416 0
114 -416 0
-97 -106 417 0
97 -417 0
106 -417 0
-110 -417 418 0
417 -418 0
110 -418 0
-120 -418 419 0
418 -419 0
120 -419 0
-103 -112 420 0
103 -420 0
112 -420 0
-116 -420 421 0
420 -421 0
116 -421 0
-126 -421 422 0
421 -422 0
126 -422 0
-109 -118 423 0
109 -423 0
118 -423 0
-122 -423 424 0
423 -424 0
122 -424 0
-132 -424 425 0
424 -425 0
132 -425 0
-115 -124 426 0
115 -426 0
124 -426 0
-128 -426 427 0
426 -427 0
128 -427 0
-138 -427 428 0
427 -428 0
138 -428 0
-121 -130 429 0
121 -429 0
130 -429 0
-134 -429 430 0
429 -430 0
134 -430 0
-144 -430 431 0
430 -431 0
144 -431 0
-127 -136 432 0
127 -432 0
136 -432 0
-140 -432 433 0
432 -433 0
140 -433 0
-150 -433 434 0
433 -434 0
150 -434 0
-133 -142 435 0
133 -435 0
142 -435 0
-146 -435 436 0
435 -436 0
146 -436 0
-156 -436 437 0
436 -437 0
156 -437 0
-139 -148 438 0
139 -438 0
148 -438 0
-152 -438 439 0
438 -439 0
152 -439 0
-162 -439 440 0
439 -440 0
162 -440 0
-145 -154 441 0
145 -441 0
154 -441 0
-158 -441 442 0
441 -442 0
158 -442 0
-168 -442 443 0
442 -443 0
168 -443 0
440 443 -444 0
-443 444 0
-440 444 0
437 444 -445 0
-444 445 0
-437 445 0
434 445 -446 0
-445 446 0
-434 446 0
431 446 -447 0
-446 447 0
-431 447 0
428 447 -448 0
-447 448 0
-428 448 0
425 448 -449 0
-448 449 0
-425 449 0
422 449 -450 0
-449 450 0
-422 450 0
419 450 -451 0
-450 451 0
-419 451 0
416 451 -452 0
-451 452 0
-416 452 0
413 452 -453 0
-452 453 0
-413 453 0
410 453 -454 0
-453 454 0
-410 454 0
407 454 -455 0
-454 455 0
-407 455 0
404 455 -456 0
-455 456 0
-404 456 0
401 456 -457 0
-456 457 0
-401 457 0
398 457 -458 0
-457 458 0
-398 458 0
395 458 -459 0
-458 459 0
-395 459 0
392 459 -460 0
-459 460 0
-392 460 0
389 460 -461 0
-460 461 0
-389 461 0
386 461 -462 0
-461 462 0
-386 462 0
383 462 -463 0
-462 463 0
-383 463 0
380 463 -464 0
-463 464 0
-380 464 0
377 464 -465 0
-464 465 0
-377 465 0
374 465 -466 0
-465 466 0
-374 466 0
371 466 0
-1 -10 467 0
1 -467 0
10 -467 0
-18 -467 468 0
467 -468 0
18 -468 0
-20 -468 469 0
468 -469 0
20 -469 0
-7 -16 470 0
7 -470 0
16 -470 0
-24 -470 471 0
470 -471 0
24 -471 0
-26 -471 472 0
471 -472 0
26 -472 0
-13 -22 473 0
13 -473 0
22 -473 0
-30 -473 474 0
473 -474 0
30 -474 0
-32 -474 475 0
474 -475 0
32 -475 0
-19 -28 476 0
19 -476 0
28 -476 0
-36 -476 477 0
476 -477 0
36 -477 0
-38 -477 478 0
477 -478 0
38 -478 0
-25 -34 479 0
25 -479 0
34 -479 0
-42 -479 480 0
479 -480 0
42 -480 0
-44 -480 481 0
480 -481 0
44 -481 0
-31 -40 482 0
31 -482 0
40 -482 0
-48 -482 483 0
482 -483 0
48 -483 0
-50 -483 484 0
483 -484 0
50 -484 0
-37 -46 485 0
37 -485 0
46 -485 0
-54 -485 486 0
485 -486 0
54 -486 0
-56 -486 487 0
486 -487 0
56 -487 0
-43 -52 488 0
43 -488 0
52 -488 0
-60 -488 489 0
488 -489 0
60 -489 0
-62 -489 490 0
489 -490 0
62 -490 0
-49 -58 491 0
49 -491 0
58 -491 0
-66 -491 492 0
491 -492 0
66 -492 0
-68 -492 493 0
492 -493 0
68 -493 0
-55 -64 494 0
55 -494 0
64 -494 0
-72 -494 495 0
494 -495 0
72 -495 0
-74 -495 496 0
495 -496 0
74 -496 0
-61 -70 497 0
61 -497 0
70 -497 0
-78 -497 498 0
497 -498 0
78 -498 0
-80 -498 499 0
498 -499 0
80 -499 0
-67 -76 500 0
67 -500 0
76 -500 0
-84 -500 501 0
500 -501 0
84 -501 0
-86 -501 502 0
501 -502 0
86 -502 0
-73 -82 503 0
73 -503 0
82 -503 0
-90 -503 504 0
503 -504 0
90 -504 0
-92 -504 505 0
504 -505 0
92 -505 0
-79 -88 506 0
79 -506 0
88 -506 0
-96 -506 507 0
506 -507 0
96 -507 0
-98 -507 508 0
507 -508 0
98 -508 0
-85 -94 509 0
85 -509 0
94 -509 0
-102 -509 510 0
509 -510 0
102 -510 0
-104 -510 511 0
510 -511 0
104 -511 0
-91 -100 512 0
91 -512 0
100 -512 0
-108 -512 513 0
512 -513 0
108 -513 0
-110 -513 514 0
513 -514 0
110 -514 0
-97 -106 515 0
97 -515 0
106 -515 0
-114 -515 516 0
515 -516 0
114 -516 0
-116 -516 517 0
516 -517 0
116 -517 0
-103 -112 518 0
103 -518 0
112 -518 0
-120 -518 519 0
518 -519 0
120 -519 0
-122 -519 520 0
519 -520 0
122 -520 0
-109 -118 521 0
109 -521 0
118 -521 0
-126 -521 522 0
521 -522 0
126 -522 0
-128 -522 523 0
522 -523 0
128 -523 0
-115 -124 524 0
115 -524 0
124 -524 0
-132 -524 525 0
524 -525 0
132 -525 0
-134 -525 526 0
525 -526 0
134 -526 0
-121 -130 527 0
121 -527 0
130 -527 0
-138 -527 528 0
527 -528 0
138 -528 0
-140 -528 529 0
528 -529 0
140 -529 0
-127 -136 530 0
127 -530 0
136 -530 0
-144 -530 531 0
530 -531 0
144 -531 0
-146 -531 532 0
531 -532 0
146 -532 0
-133 -142 533 0
133 -533 0
142 -533 0
-150 -533 534 0
533 -534 0
150 -534 0
-152 -534 535 0
534 -535 0
152 -535 0
-139 -148 536 0
139 -536 0
148 -536 0
-156 -536 537 0
536 -537 0
156 -537 0
-158 -537 538 0
537 -538 0
158 -538 0
-145 -154 539 0
145 -539 0
154 -539 0
-162 -539 540 0
539 -540 0
162 -540 0
-164 -540 541 0
540 -541 0
164 -541 0
538 541 -542 0
-541 542 0
-538 542 0
535 542 -543 0
-542 543 0
-535 543 0
532 543 -544 0
-543 544 0
-532 544 0
529 544 -545 0
-544 545 0
-529 545 0
526 545 -546 0
-545 546 0
-526 546 0
523 546 -547 0
-546 547 0
-523 547 0
520 547 -548 0
-547 548 0
-520 548 0
517 548 -549 0
-548 549 0
-517 549 0
514 549 -550 0
-549 550 0
-514 550 0
511 550 -551 0
-550 551 0
-511 551 0
508 551 -552 0
-551 552 0
-508 552 0
505 552 -553 0
-552 553 0
-505 553 0
502 553 -554 0
-553 554 0
-502 554 0
499 554 -555 0
-554 555 0
-499 555 0
496 555 -556 0
-555 556 0
-496 556 0
493 556 -557 0
-556 557 0
-493 557 0
490 557 -558 0
-557 558 0
-490 558 0
487 558 -559 0
-558 559 0
-487 559 0
484 559 -560 0
-559 560 0
-484 560 0
481 560 -561 0
-560 561 0
-481 561 0
478 561 -562 0
-561 562 0
-478 562 0
475 562 -563 0
-562 563 0
-475 563 0
472 563 -564 0
-563 564 0
-472 564 0
469 564 0
-1 -12 565 0
1 -565 0
12 -565 0
-14 -565 566 0
565 -566 0
14 -566 0
-22 -566 567 0
566 -567 0
22 -567 0
-7 -18 568 0
7 -568 0
18 -568 0
-20 -568 569 0
568 -569 0
20 -569 0
-28 -569 570 0
569 -570 0
28 -570 0
-13 -24 571 0
13 -571 0
24 -571 0
-26 -571 572 0
571 -572 0
26 -572 0
-34 -572 573 0
572 -573 0
34 -573 0
-19 -30 574 0
19 -574 0
30 -574 0
-32 -574 575 0
574 -575 0
32 -575 0
-40 -575 576 0
575 -576 0
40 -576 0
-25 -36 577 0
25 -577 0
36 -577 0
-38 -577 578 0
577 -578 0
38 -578 0
-46 -578 579 0
578 -579 0
46 -579 0
-31 -42 580 0
31 -580 0
42 -580 0
-44 -580 581 0
580 -581 0
44 -581 0
-52 -581 582 0
581 -582 0
52 -582 0
-37 -48 583 0
37 -583 0
48 -583 0
-50 -583 584 0
583 -584 0
50 -584 0
-58 -584 585 0
584 -585 0
58 -585 0
-43 -54 586 0
43 -586 0
54 -586 0
-56 -586 587 0
586 -587 0
56 -587 0
-64 -587 588 0
587 -588 0
64 -588 0
-49 -60 589 0
49 -589 0
60 -589 0
-62 -589 590 0
589 -590 0
62 -590 0
-70 -590 591 0
590 -591 0
70 -591 0
-55 -66 592 0
55 -592 0
66 -592 0
-68 -592 593 0
592 -593 0
68 -593 0
-76 -593 594 0
593 -594 0
76 -594 0
-61 -72 595 0
61 -595 0
72 -595 0
-74 -595 596 0
595 -596 0
74 -596 0
-82 -596 597 0
596 -597 0
82 -597 0
-67 -78 598 0
67 -598 0
78 -598 0
-80 -598 599 0
598 -599 0
80 -599 0
-88 -599 600 0
599 -600 0
88 -600 0
-73 -84 601 0
73 -601 0
84 -601 0
-86 -601 602 0
601 -602 0
86 -602 0
-94 -602 603 0
602 -603 0
94 -603 0
-79 -90 604 0
79 -604 0
90 -604 0
-92 -604 605 0
604 -605 0
92 -605 0
-100 -605 606 0
605 -606 0
100 -606 0
-85 -96 607 0
85 -607 0
96 -607 0
-98 -607 608 0
607 -608 0
98 -608 0
-106 -608 609 0
608 -609 0
106 -609 0
-91 -102 610 0
91 -610 0
102 -610 0
-104 -610 611 0
610 -611 0
104 -611 0
-112 -611 612 0
611 -612 0
112 -612 0
-97 -108 613 0
97 -613 0
108 -613 0
-110 -613 614 0
613 -614 0
110 -614 0
-118 -614 615 0
614 -615 0
118 -615 0
-103 -114 616 0
103 -616 0
114 -616 0
-116 -616 617 0
616 -617 0
116 -617 0
-124 -617 618 0
617 -618 0
124 -618 0
-109 -120 619 0
109 -619 0
120 -619 0
-122 -619 620 0
619 -620 0
122 -620 0
-130 -620 621 0
620 -621 0
130 -621 0
-115 -126 622 0
115 -622 0
126 -622 0
-128 -622 623 0
622 -623 0
128 -623 0
-136 -623 624 0
623 -624 0
136 -624 0
-121 -132 625 0
121 -625 0
132 -625 0
-134 -625 626 0
625 -626 0
134 -626 0
-142 -626 627 0
626 -627 0
142 -627 0
-127 -138 628 0
127 -628 0
138 -628 0
-140 -628 629 0
628 -629 0
140 -629 0
-148 -629 630 0
629 -630 0
148 -630 0
-133 -144 631 0
133 -631 0
144 -631 0
-146 -631 632 0
631 -632 0
146 -632 0
-154 -632 633 0
632 -633 0
154 -633 0
-139 -150 634 0
139 -634 0
150 -634 0
-152 -634 635 0
634 -635 0
152 -635 0
-160 -635 636 0
635 -636 0
160 -636 0
-145 -156 637 0
145 -637 0
156 -637 0
-158 -637 638 0
637 -638 0
158 -638 0
-166 -638 639 0
638 -639 0
166 -639 0
636 639 -640 0
-639 640 0
-636 640 0
633 640 -641 0
-640 641 0
-633 641 0
630 641 -642 0
-641 642 0
-630 642 0
627 642 -643 0
-642 643 0
-627 643 0
624 643 -644 0
-643 644 0
-624 644 0
621 644 -645 0
-644 645 0
-621 645 0
618 645 -646 0
-645 646 0
-618 646 0
615 646 -647 0
-646 647 0
-615 647 0
612 647 -648 0
-647 648 0
-612 648 0
609 648 -649 0
-648 649 0
-609 649 0
606 649 -650 0
-649 650 0
-606 650 0
603 650 -651 0
-650 651 0
-603 651 0
600 651 -652 0
-651 652 0
-600 652 0
597 652 -653 0
-652 653 0
-597 653 0
594 653 -654 0
-653 654 0
-594 654 0
591 654 -655 0
-654 655 0
-591 655 0
588 655 -656 0
-655 656 0
-588 656 0
585 656 -657 0
-656 657 0
-585 657 0
582 657 -658 0
-657 658 0
-582 658 0
579 658 -659 0
-658 659 0
-579 659 0
576 659 -660 0
-659 660 0
-576 660 0
573 660 -661 0
-660 661 0
-573 661 0
570 661 -662 0
-661 662 0
-570 662 0
567 662 0
-1 -12 663 0
1 -663 0
12 -663 0
-16 -663 664 0
663 -664 0
16 -664 0
-20 -664 665 0
664 -665 0
20 -665 0
-7 -18 666 0
7 -666 0
18 -666 0
-22 -666 667 0
666 -667 0
22 -667 0
-26 -667 668 0
667 -668 0
26 -668 0
-13 -24 669 0
13 -669 0
24 -669 0
-28 -669 670 0
669 -670 0
28 -670 0
-32 -670 671 0
670 -671 0
32 -671 0
-19 -30 672 0
19 -672 0
30 -672 0
-34 -672 673 0
672 -673 0
34 -673 0
-38 -673 674 0
673 -674 0
38 -674 0
-25 -36 675 0
25 -675 0
36 -675 0
-40 -675 676 0
675 -676 0
40 -676 0
-44 -676 677 0
676 -677 0
44 -677 0
-31 -42 678 0
31 -678 0
42 -678 0
-46 -678 679 0
678 -679 0
46 -679 0
-50 -679 680 0
679 -680 0
50 -680 0
-37 -48 681 0
37 -681 0
48 -681 0
-52 -681 682 0
681 -682 0
52 -682 0
-56 -682 683 0
682 -683 0
56 -683 0
-43 -54 684 0
43 -684 0
54 -684 0
-58 -684 685 0
684 -685 0
58 -685 0
-62 -685 686 0
685 -686 0
62 -686 0
-49 -60 687 0
49 -687 0
60 -687 0
-64 -687 688 0
687 -688 0
64 -688 0
-68 -688 689 0
688 -689 0
68 -689 0
-55 -66 690 0
55 -690 0
66 -690 0
-70 -690 691 0
690 -691 0
70 -691 0
-74 -691 692 0
691 -692 0
74 -692 0
-61 -72 693 0
61 -693 0
72 -693 0
-76 -693 694 0
693 -694 0
76 -694 0
-80 -694 695 0
694 -695 0
80 -695 0
-67 -78 696 0
67 -696 0
78 -696 0
-82 -696 697 0
696 -697 0
82 -697 0
-86 -697 698 0
697 -698 0
86 -698 0
-73 -84 699 0
73 -699 0
84 -699 0
-88 -699 700 0
699 -700 0
88 -700 0
-92 -700 701 0
700 -701 0
92 -701 0
-79 -90 702 0
79 -702 0
90 -702 0
-94 -702 703 0
702 -703 0
94 -703 0
-98 -703 704 0
703 -704 0
98 -704 0
-85 -96 705 0
85 -705 0
96 -705 0
-100 -705 706 0
705 -706 0
100 -706 0
-104 -706 707 0
706 -707 0
104 -707 0
-91 -102 708 0
91 -708 0
102 -708 0
-106 -708 709 0
708 -709 0
106 -709 0
-110 -709 710 0
709 -710 0
110 -710 0
-97 -108 711 0
97 -711 0
108 -711 0
-112 -711 712 0
711 -712 0
112 -712 0
-116 -712 713 0
712 -713 0
116 -713 0
-103 -114 714 0
103 -714 0
114 -714 0
-118 -714 715 0
714 -715 0
118 -715 0
-122 -715 716 0
715 -716 0
122 -716 0
-109 -120 717 0
109 -717 0
120 -717 0
-124 -717 718 0
717 -718 0
124 -718 0
-128 -718 719 0
718 -719 0
128 -719 0
-115 -126 720 0
115 -720 0
126 -720 0
-130 -720 721 0
720 -721 0
130 -721 0
-134 -721 722 0
721 -722 0
134 -722 0
-121 -132 723 0
121 -723 0
132 -723 0
-136 -723 724 0
723 -724 0
136 -724 0
-140 -724 725 0
724 -725 0
140 -725 0
-127 -138 726 0
127 -726 0
138 -726 0
-142 -726 727 0
726 -727 0
142 -727 0
-146 -727 728 0
727 -728 0
146 -728 0
-133 -144 729 0
133 -729 0
144 -729 0
-148 -729 730 0
729 -730 0
148 -730 0
-152 -730 731 0
730 -731 0
152 -731 0
-139 -150 732 0
139 -732 0
150 -732 0
-154 -732 733 0
732 -733 0
154 -733 0
-158 -733 734 0
733 -734 0
158 -734 0
-145 -156 735 0
145 -735 0
156 -735 0
-160 -735 736 0
735 -736 0
160 -736 0
-164 -736 737 0
736 -737 0
164 -737 0
734 737 -738 0
-737 738 0
-734 738 0
731 738 -739 0
-738 739 0
-731 739 0
728 739 -740 0
-739 740 0
-728 740 0
725 740 -741 0
-740 741 0
-725 741 0
722 741 -742 0
-741 742 0
-722 742 0
719 742 -743 0
-742 743 0
-719 743 0
716 743 -744 0
-743 744 0
-716 744 0
713 744 -745 0
-744 745 0
-713 745 0
710 745 -746 0
-745 746 0
-710 746 0
707 746 -747 0
-746 747 0
-707 747 0
704 747 -748 0
-747 748 0
-704 748 0
701 748 -749 0
-748 749 0
-701 749 0
698 749 -750 0
-749 750 0
-698 750 0
695 750 -751 0
-750 751 0
-695 751 0
692 751 -752 0
-751 752 0
-692 752 0
689 752 -753 0
-752 753 0
-689 753 0
686 753 -754 0
-753 754 0
-686 754 0
683 754 -755 0
-754 755 0
-683 755 0
680 755 -756 0
-755 756 0
-680 756 0
677 756 -757 0
-756 757 0
-677 757 0
674 757 -758 0
-757 758 0
-674 758 0
671 758 -759 0
-758 759 0
-671 759 0
668 759 -760 0
-759 760 0
-668 760 0
665 760 0
-2 -7 761 0
2 -761 0
7 -761 0
-16 -761 762 0
761 -762 0
16 -762 0
-24 -762 763 0
762 -763 0
24 -763 0
-8 -13 764 0
8 -764 0
13 -764 0
-22 -764 765 0
764 -765 0
22 -765 0
-30 -765 766 0
765 -766 0
30 -766 0
-14 -19 767 0
14 -767 0
19 -767 0
-28 -767 768 0
767 -768 0
28 -768 0
-36 -768 769 0
768 -769 0
36 -769 0
-20 -25 770 0
20 -770 0
25 -770 0
-34 -770 771 0
770 -771 0
34 -771 0
-42 -771 772 0
771 -772 0
42 -772 0
-26 -31 773 0
26 -773 0
31 -773 0
-40 -773 774 0
773 -774 0
40 -774 0
-48 -774 775 0
774 -775 0
48 -775 0
-32 -37 776 0
32 -776 0
37 -776 0
-46 -776 777 0
776 -777 0
46 -777 0
-54 -777 778 0
777 -778 0
54 -778 0
-38 -43 779 0
38 -779 0
43 -779 0
-52 -779 780 0
779 -780 0
52 -780 0
-60 -780 781 0
780 -781 0
60 -781 0
-44 -49 782 0
44 -782 0
49 -782 0
-58 -782 783 0
782 -783 0
58 -783 0
-66 -783 784 0
783 -784 0
66 -784 0
-50 -55 785 0
50 -785 0
55 -785 0
-64 -785 786 0
785 -786 0
64 -786 0
-72 -786 787 0
786 -787 0
72 -787 0
-56 -61 788 0
56 -788 0
61 -788 0
-70 -788 789 0
788 -789 0
70 -789 0
-78 -789 790 0
789 -790 0
78 -790 0
-62 -67 791 0
62 -791 0
67 -791 0
-76 -791 792 0
791 -792 0
76 -792 0
-84 -792 793 0
792 -793 0
84 -793 0
-68 -73 794 0
68 -794 0
73 -794 0
-82 -794 795 0
794 -795 0
82 -795 0
-90 -795 796 0
795 -796 0
90 -796 0
-74 -79 797 0
74 -797 0
79 -797 0
-88 -797 798 0
797 -798 0
88 -798 0
-96 -798 799 0
798 -799 0
96 -799 0
-80 -85 800 0
80 -800 0
85 -800 0
-94 -800 801 0
800 -801 0
94 -801 0
-102 -801 802 0
801 -802 0
102 -802 0
-86 -91 803 0
86 -803 0
91 -803 0
-100 -803 804 0
803 -804 0
100 -804 0
-108 -804 805 0
804 -805 0
108 -805 0
-92 -97 806 0
92 -806 0
97 -806 0
-106 -806 807 0
806 -807 0
106 -807 0
-114 -807 808 0
807 -808 0
114 -808 0
-98 -103 809 0
98 -809 0
103 -809 0
-112 -809 810 0
809 -810 0
112 -810 0
-120 -810 811 0
810 -811 0
120 -811 0
-104 -109 812 0
104 -812 0
109 -812 0
-118 -812 813 0
812 -813 0
118 -813 0
-126 -813 814 0
813 -814 0
126 -814 0
-110 -115 815 0
110 -815 0
115 -815 0
-124 -815 816 0
815 -816 0
124 -816 0
-132 -816 817 0
816 -817 0
132 -817 0
-116 -121 818 0
116 -818 0
121 -818 0
-130 -818 819 0
818 -819 0
130 -819 0
-138 -819 820 0
819 -820 0
138 -820 0
-122 -127 821 0
122 -821 0
127 -821 0
-136 -821 822 0
821 -822 0
136 -822 0
-144 -822 823 0
822 -823 0
144 -823 0
-128 -133 824 0
128 -824 0
133 -824 0
-142 -824 825 0
824 -825 0
142 -825 0
-150 -825 826 0
825 -826 0
150 -826 0
-134 -139 827 0
134 -827 0
139 -827 0
-148 -827 828 0
827 -828 0
148 -828 0
-156 -828 829 0
828 -829 0
156 -829 0
-140 -145 830 0
140 -830 0
145 -830 0
-154 -830 831 0
830 -831 0
154 -831 0
-162 -831 832 0
831 -832 0
162 -832 0
-146 -151 833 0
146 -833 0
151 -833 0
-160 -833 834 0
833 -834 0
160 -834 0
-168 -834 835 0
834 -835 0
168 -835 0
832 835 -836 0
-835 836 0
-832 836 0
829 836 -837 0
-836 837 0
-829 837 0
826 837 -838 0
-837 838 0
-826 838 0
823 838 -839 0
-838 839 0
-823 839 0
820 839 -840 0
-839 840 0
-820 840 0
817 840 -841 0
-840 841 0
-817 841 0
814 841 -842 0
-841 842 0
-814 842 0
811 842 -843 0
-842 843 0
-811 843 0
808 843 -844 0
-843 844 0
-808 844 0
805 844 -845 0
-844 845 0
-805 845 0
802 845 -846 0
-845 846 0
-802 846 0
799 846 -847 0
-846 847 0
-799 847 0
796 847 -848 0
-847 848 0
-796 848 0
793 848 -849 0
-848 849 0
-793 849 0
790 849 -850 0
-849 850 0
-790 850 0
787 850 -851 0
-850 851 0
-787 851 0
784 851 -852 0
-851 852 0
-784 852 0
781 852 -853 0
-852 853 0
-781 853 0
778 853 -854 0
-853 854 0
-778 854 0
775 854 -855 0
-854 855 0
-775 855 0
772 855 -856 0
-855 856 0
-772 856 0
769 856 -857 0
-856 857 0
-769 857 0
766 857 -858 0
-857 858 0
-766 858 0
763 858 0
-2 -7 859 0
2 -859 0
7 -859 0
-18 -859 860 0
859 -860 0
18 -860 0
-22 -860 861 0
860 -861 0
22 -861 0
-8 -13 862 0
8 -862 0
13 -862 0
-24 -862 863 0
862 -863 0
24 -863 0
-28 -863 864 0
863 -864 0
28 -864 0
-14 -19 865 0
14 -865 0
19 -865 0
-30 -865 866 0
865 -866 0
30 -866 0
-34 -866 867 0
866 -867 0
34 -867 0
-20 -25 868 0
20 -868 0
25 -868 0
-36 -868 869 0
868 -869 0
36 -869 0
-40 -869 870 0
869 -870 0
40 -870 0
-26 -31 871 0
26 -871 0
31 -871 0
-42 -871 872 0
871 -872 0
42 -872 0
-46 -872 873 0
872 -873 0
46 -873 0
-32 -37 874 0
32 -874 0
37 -874 0
-48 -874 875 0
874 -875 0
48 -875 0
-52 -875 876 0
875 -876 0
52 -876 0
-38 -43 877 0
38 -877 0
43 -877 0
-54 -877 878 0
877 -878 0
54 -878 0
-58 -878 879 0
878 -879 0
58 -879 0
-44 -49 880 0
44 -880 0
49 -880 0
-60 -880 881 0
880 -881 0
60 -881 0
-64 -881 882 0
881 -882 0
64 -882 0
-50 -55 883 0
50 -883 0
55 -883 0
-66 -883 884 0
883 -884 0
66 -884 0
-70 -884 885 0
884 -885 0
70 -885 0
-56 -61 886 0
56 -886 0
61 -886 0
-72 -886 887 0
886 -887 0
72 -887 0
-76 -887 888 0
887 -888 0
76 -888 0
-62 -67 889 0
62 -889 0
67 -889 0
-78 -889 890 0
889 -890 0
78 -890 0
-82 -890 891 0
890 -891 0
82 -891 0
-68 -73 892 0
68 -892 0
73 -892 0
-84 -892 893 0
892 -893 0
84 -893 0
-88 -893 894 0
893 -894 0
88 -894 0
-74 -79 895 0
74 -895 0
79 -895 0
-90 -895 896 0
895 -896 0
90 -896 0
-94 -896 897 0
896 -897 0
94 -897 0
-80 -85 898 0
80 -898 0
85 -898 0
-96 -898 899 0
898 -899 0
96 -899 0
-100 -899 900 0
899 -900 0
100 -900 0
-86 -91 901 0
86 -901 0
91 -901 0
-102 -901 902 0
901 -902 0
102 -902 0
-106 -902 903 0
902 -903 0
106 -903 0
-92 -97 904 0
92 -904 0
97 -904 0
-108 -904 905 0
904 -905 0
108 -905 0
-112 -905 906 0
905 -906 0
112 -906 0
-98 -103 907 0
98 -907 0
103 -907 0
-114 -907 908 0
907 -908 0
114 -908 0
-118 -908 909 0
908 -909 0
118 -909 0
-104 -109 910 0
104 -910 0
109 -910 0
-120 -910 911 0
910 -911 0
120 -911 0
-124 -911 912 0
911 -912 0
124 -912 0
-110 -115 913 0
110 -913 0
115 -913 0
-126 -913 914 0
913 -914 0
126 -914 0
-130 -914 915 0
914 -915 0
130 -915 0
-116 -121 916 0
116 -916 0
121 -916 0
-132 -916 917 0
916 -917 0
132 -917 0
-136 -917 918 0
917 -918 0
136 -918 0
-122 -127 919 0
122 -919 0
127 -919 0
-138 -919 920 0
919 -920 0
138 -920 0
-142 -920 921 0
920 -921 0
142 -921 0
-128 -133 922 0
128 -922 0
133 -922 0
-144 -922 923 0
922 -923 0
144 -923 0
-148 -923 924 0
923 -924 0
148 -924 0
-134 -139 925 0
134 -925 0
139 -925 0
-150 -925 926 0
925 -926 0
150 -926 0
-154 -926 927 0
926 -927 0
154 -927 0
-140 -145 928 0
140 -928 0
145 -928 0
-156 -928 929 0
928 -929 0
156 -929 0
-160 -929 930 0
929 -930 0
160 -930 0
-146 -151 931 0
146 -931 0
151 -931 0
-162 -931 932 0
931 -932 0
162 -932 0
-166 -932 933 0
932 -933 0
166 -933 0
930 933 -934 0
-933 934 0
-930 934 0
927 934 -935 0
-934 935 0
-927 935 0
924 935 -936 0
-935 936 0
-924 936 0
921 936 -937 0
-936 937 0
-921 937 0
918 937 -938 0
-937 938 0
-918 938 0
915 938 -939 0
-938 939 0
-915 939 0
912 939 -940 0
-939 940 0
-912 940 0
909 940 -941 0
-940 941 0
-909 941 0
906 941 -942 0
-941 942 0
-906 942 0
903 942 -943 0
-942 943 0
-903 943 0
900 943 -944 0
-943 944 0
-900 944 0
897 944 -945 0
-944 945 0
-897 945 0
894 945 -946 0
-945 946 0
-894 946 0
891 946 -947 0
-946 947 0
-891 947 0
888 947 -948 0
-947 948 0
-888 948 0
885 948 -949 0
-948 949 0
-885 949 0
882 949 -950 0
-949 950 0
-882 950 0
879 950 -951 0
-950 951 0
-879 951 0
876 951 -952 0
-951 952 0
-876 952 0
873 952 -953 0
-952 953 0
-873 953 0
870 953 -954 0
-953 954 0
-870 954 0
867 954 -955 0
-954 955 0
-867 955 0
864 955 -956 0
-955 956 0
-864 956 0
861 956 0
-2 -10 957 0
2 -957 0
10 -957 0
-13 -957 958 0
957 -958 0
13 -958 0
-24 -958 959 0
958 -959 0
24 -959 0
-8 -16 960 0
8 -960 0
16 -960 0
-19 -960 961 0
960 -961 0
19 -961 0
-30 -961 962 0
961 -962 0
30 -962 0
-14 -22 963 0
14 -963 0
22 -963 0
-25 -963 964 0
963 -964 0
25 -964 0
-36 -964 965 0
964 -965 0
36 -965 0
-20 -28 966 0
20 -966 0
28 -966 0
-31 -966 967 0
966 -967 0
31 -967 0
-42 -967 968 0
967 -968 0
42 -968 0
-26 -34 969 0
26 -969 0
34 -969 0
-37 -969 970 0
969 -970 0
37 -970 0
-48 -970 971 0
970 -971 0
48 -971 0
-32 -40 972 0
32 -972 0
40 -972 0
-43 -972 973 0
972 -973 0
43 -973 0
-54 -973 974 0
973 -974 0
54 -974 0
-38 -46 975 0
38 -975 0
46 -975 0
-49 -975 976 0
975 -976 0
49 -976 0
-60 -976 977 0
976 -977 0
60 -977 0
-44 -52 978 0
44 -978 0
52 -978 0
-55 -978 979 0
978 -979 0
55 -979 0
-66 -979 980 0
979 -980 0
66 -980 0
-50 -58 981 0
50 -981 0
58 -981 0
-61 -981 982 0
981 -982 0
61 -982 0
-72 -982 983 0
982 -983 0
72 -983 0
-56 -64 984 0
56 -984 0
64 -984 0
-67 -984 985 0
984 -985 0
67 -985 0
-78 -985 986 0
985 -986 0
78 -986 0
-62 -70 987 0
62 -987 0
70 -987 0
-73 -987 988 0
987 -988 0
73 -988 0
-84 -988 989 0
988 -989 0
84 -989 0
-68 -76 990 0
68 -990 0
76 -990 0
-79 -990 991 0
990 -991 0
79 -991 0
-90 -991 992 0
991 -992 0
90 -992 0
-74 -82 993 0
74 -993 0
82 -993 0
-85 -993 994 0
993 -994 0
85 -994 0
-96 -994 995 0
994 -995 0
96 -995 0
-80 -88 996 0
80 -996 0
88 -996 0
-91 -996 997 0
996 -997 0
91 -997 0
-102 -997 998 0
997 -998 0
102 -998 0
-86 -94 999 0
86 -999 0
94 -999 0
-97 -999 1000 0
999 -1000 0
97 -1000 0
-108 -1000 1001 0
1000 -1001 0
108 -1001 0
-92 -100 1002 0
92 -1002 0
100 -1002 0
-103 -1002 1003 0
1002 -1003 0
103 -1003 0
-114 -1003 1004 0
1003 -1004 0
114 -1004 0
-98 -106 1005 0
98 -1005 0
106 -1005 0
-109 -1005 1006 0
1005 -1006 0
109 -1006 0
-120 -1006 1007 0
1006 -1007 0
120 -1007 0
-104 -112 1008 0
104 -1008 0
112 -1008 0
-115 -1008 1009 0
1008 -1009 0
115 -1009 0
-126 -1009 1010 0
1009 -1010 0
126 -1010 0
-110 -118 1011 0
110 -1011 0
118 -1011 0
-121 -1011 1012 0
1011 -1012 0
121 -1012 0
-132 -1012 1013 0
1012 -1013 0
132 -1013 0
-116 -124 1014 0
116 -1014 0
124 -1014 0
-127 -1014 1015 0
1014 -1015 0
127 -1015 0
-138 -1015 1016 0
1015 -1016 0
138 -1016 0
-122 -130 1017 0
122 -1017 0
130 -1017 0
-133 -1017 1018 0
1017 -1018 0
133 -1018 0
-144 -1018 1019 0
1018 -1019 0
144 -1019 0
-128 -136 1020 0
128 -1020 0
136 -1020 0
-139 -1020 1021 0
1020 -1021 0
139 -1021 0
-150 -1021 1022 0
1021 -1022 0
150 -1022 0
-134 -142 1023 0
134 -1023 0
142 -1023 0
-145 -1023 1024 0
1023 -1024 0
145 -1024 0
-156 -1024 1025 0
1024 -1025 0
156 -1025 0
-140 -148 1026 0
140 -1026 0
148 -1026 0
-151 -1026 1027 0
1026 -1027 0
151 -1027 0
-162 -1027 1028 0
1027 -1028 0
162 -1028 0
-146 -154 1029 0
146 -1029 0
154 -1029 0
-157 -1029 1030 0
1029 -1030 0
157 -1030 0
-168 -1030 1031 0
1030 -1031 0
168 -1031 0
1028 1031 -1032 0
-1031 1032 0
-1028 1032 0
1025 1032 -1033 0
-1032 1033 0
-1025 1033 0
1022 1033 -1034 0
-1033 1034 0
-1022 1034 0
1019 1034 -1035 0
-1034 1035 0
-1019 1035 0
1016 1035 -1036 0
-1035 1036 0
-1016 1036 0
1013 1036 -1037 0
-1036 1037 0
-1013 1037 0
1010 1037 -1038 0
-1037 1038 0
-1010 1038 0
1007 1038 -1039 0
-1038 1039 0
-1007 1039 0
1004 1039 -1040 0
-1039 1040 0
-1004 1040 0
1001 1040 -1041 0
-1040 1041 0
-1001 1041 0
998 1041 -1042 0
-1041 1042 0
-998 1042 0
995 1042 -1043 0
-1042 1043 0
-995 1043 0
992 1043 -1044 0
-1043 1044 0
-992 1044 0
989 1044 -1045 0
-1044 1045 0
-989 1045 0
986 1045 -1046 0
-1045 1046 0
-986 1046 0
983 1046 -1047 0
-1046 1047 0
-983 1047 0
980 1047 -1048 0
-1047 1048 0
-980 1048 0
977 1048 -1049 0
-1048 1049 0
-977 1049 0
974 1049 -1050 0
-1049 1050 0
-974 1050 0
971 1050 -1051 0
-1050 1051 0
-971 1051 0
968 1051 -1052 0
-1051 1052 0
-968 1052 0
965 1052 -1053 0
-1052 1053 0
-965 1053 0
962 1053 -1054 0
-1053 1054 0
-962 1054 0
959 1054 0
-1 1055 0
1 -1055 0
-2 -10 1056 0
2 -1056 0
10 -1056 0
-18 -1056 1057 0
1056 -1057 0
18 -1057 0
-19 -1057 1058 0
1057 -1058 0
19 -1058 0
-8 -16 1059 0
8 -1059 0
16 -1059 0
-24 -1059 1060 0
1059 -1060 0
24 -1060 0
-25 -1060 1061 0
1060 -1061 0
25 -1061 0
-14 -22 1062 0
14 -1062 0
22 -1062 0
-30 -1062 1063 0
1062 -1063 0
30 -1063 0
-31 -1063 1064 0
1063 -1064 0
31 -1064 0
-20 -28 1065 0
20 -1065 0
28 -1065 0
-36 -1065 1066 0
1065 -1066 0
36 -1066 0
-37 -1066 1067 0
1066 -1067 0
37 -1067 0
-26 -34 1068 0
26 -1068 0
34 -1068 0
-42 -1068 1069 0
1068 -1069 0
42 -1069 0
-43 -1069 1070 0
1069 -1070 0
43 -1070 0
-32 -40 1071 0
32 -1071 0
40 -1071 0
-48 -1071 1072 0
1071 -1072 0
48 -1072 0
-49 -1072 1073 0
1072 -1073 0
49 -1073 0
-38 -46 1074 0
38 -1074 0
46 -1074 0
-54 -1074 1075 0
1074 -1075 0
54 -1075 0
-55 -1075 1076 0
1075 -1076 0
55 -1076 0
-44 -52 1077 0
44 -1077 0
52 -1077 0
-60 -1077 1078 0
1077 -1078 0
60 -1078 0
-61 -1078 1079 0
1078 -1079 0
61 -1079 0
-50 -58 1080 0
50 -1080 0
58 -1080 0
-66 -1080 1081 0
1080 -1081 0
66 -1081 0
-67 -1081 1082 0
1081 -1082 0
67 -1082 0
-56 -64 1083 0
56 -1083 0
64 -1083 0
-72 -1083 1084 0
1083 -1084 0
72 -1084 0
-73 -1084 1085 0
1084 -1085 0
73 -1085 0
-62 -70 1086 0
62 -1086 0
70 -1086 0
-78 -1086 1087 0
1086 -1087 0
78 -1087 0
-79 -1087 1088 0
1087 -1088 0
79 -1088 0
-68 -76 1089 0
68 -1089 0
76 -1089 0
-84 -1089 1090 0
1089 -1090 0
84 -1090 0
-85 -1090 1091 0
1090 -1091 0
85 -1091 0
-74 -82 1092 0
74 -1092 0
82 -1092 0
-90 -1092 1093 0
1092 -1093 0
90 -1093 0
-91 -1093 1094 0
1093 -1094 0
91 -1094 0
-80 -88 1095 0
80 -1095 0
88 -1095 0
-96 -1095 1096 0
1095 -1096 0
96 -1096 0
-97 -1096 1097 0
1096 -1097 0
97 -1097 0
-86 -94 1098 0
86 -1098 0
94 -1098 0
-102 -1098 1099 0
1098 -1099 0
102 -1099 0
-103 -1099 1100 0
1099 -1100 0
103 -1100 0
-92 -100 1101 0
92 -1101 0
100 -1101 0
-108 -1101 1102 0
1101 -1102 0
108 -1102 0
-109 -1102 1103 0
1102 -1103 0
109 -1103 0
-98 -106 1104 0
98 -1104 0
106 -1104 0
-114 -1104 1105 0
1104 -1105 0
114 -1105 0
-115 -1105 1106 0
1105 -1106 0
115 -1106 0
-104 -112 1107 0
104 -1107 0
112 -1107 0
-120 -1107 1108 0
1107 -1108 0
120 -1108 0
-121 -1108 1109 0
1108 -1109 0
121 -1109 0
-110 -118 1110 0
110 -1110 0
118 -1110 0
-126 -1110 1111 0
1110 -1111 0
126 -1111 0
-127 -1111 1112 0
1111 -1112 0
127 -1112 0
-116 -124 1113 0
116 -1113 0
124 -1113 0
-132 -1113 1114 0
1113 -1114 0
132 -1114 0
-133 -1114 1115 0
1114 -1115 0
133 -1115 0
-122 -130 1116 0
122 -1116 0
130 -1116 0
-138 -1116 1117 0
1116 -1117 0
138 -1117 0
-139 -1117 1118 0
1117 -1118 0
139 -1118 0
-128 -136 1119 0
128 -1119 0
136 -1119 0
-144 -1119 1120 0
1119 -1120 0
144 -1120 0
-145 -1120 1121 0
1120 -1121 0
145 -1121 0
-134 -142 1122 0
134 -1122 0
142 -1122 0
-150 -1122 1123 0
1122 -1123 0
150 -1123 0
-151 -1123 1124 0
1123 -1124 0
151 -1124 0
-140 -148 1125 0
140 -1125 0
148 -1125 0
-156 -1125 1126 0
1125 -1126 0
156 -1126 0
-157 -1126 1127 0
1126 -1127 0
157 -1127 0
-146 -154 1128 0
146 -1128 0
154 -1128 0
-162 -1128 1129 0
1128 -1129 0
162 -1129 0
-163 -1129 1130 0
1129 -1130 0
163 -1130 0
1127 1130 -1131 0
-1130 1131 0
-1127 1131 0
1124 1131 -1132 0
-1131 1132 0
-1124 1132 0
1121 1132 -1133 0
-1132 1133 0
-1121 1133 0
1118 1133 -1134 0
-1133 1134 0
-1118 1134 0
1115 1134 -1135 0
-1134 1135 0
-1115 1135 0
1112 1135 -1136 0
-1135 1136 0
-1112 1136 0
1109 1136 -1137 0
-1136 1137 0
-1109 1137 0
1106 1137 -1138 0
-1137 1138 0
-1106 1138 0
1103 1138 -1139 0
-1138 1139 0
-1103 1139 0
1100 1139 -1140 0
-1139 1140 0
-1100 1140 0
1097 1140 -1141 0
-1140 1141 0
-1097 1141 0
1094 1141 -1142 0
-1141 1142 0
-1094 1142 0
1091 1142 -1143 0
-1142 1143 0
-1091 1143 0
1088 1143 -1144 0
-1143 1144 0
-1088 1144 0
1085 1144 -1145 0
-1144 1145 0
-1085 1145 0
1082 1145 -1146 0
-1145 1146 0
-1082 1146 0
1079 1146 -1147 0
-1146 1147 0
-1079 1147 0
1076 1147 -1148 0
-1147 1148 0
-1076 1148 0
1073 1148 -1149 0
-1148 1149 0
-1073 1149 0
1070 1149 -1150 0
-1149 1150 0
-1070 1150 0
1067 1150 -1151 0
-1150 1151 0
-1067 1151 0
1064 1151 -1152 0
-1151 1152 0
-1064 1152 0
1061 1152 -1153 0
-1152 1153 0
-1061 1153 0
1058 1153 -1154 0
-1153 1154 0
-1058 1154 0
1154 -1155 0
-1154 1155 0
1155 -1156 0
-1155 1156 0
1055 1156 0
-2 -12 1157 0
2 -1157 0
12 -1157 0
-13 -1157 1158 0
1157 -1158 0
13 -1158 0
-22 -1158 1159 0
1158 -1159 0
22 -1159 0
-8 -18 1160 0
8 -1160 0
18 -1160 0
-19 -1160 1161 0
1160 -1161 0
19 -1161 0
-28 -1161 1162 0
1161 -1162 0
28 -1162 0
-14 -24 1163 0
14 -1163 0
24 -1163 0
-25 -1163 1164 0
1163 -1164 0
25 -1164 0
-34 -1164 1165 0
1164 -1165 0
34 -1165 0
-20 -30 1166 0
20 -1166 0
30 -1166 0
-31 -1166 1167 0
1166 -1167 0
31 -1167 0
-40 -1167 1168 0
1167 -1168 0
40 -1168 0
-26 -36 1169 0
26 -1169 0
36 -1169 0
-37 -1169 1170 0
1169 -1170 0
37 -1170 0
-46 -1170 1171 0
1170 -1171 0
46 -1171 0
-32 -42 1172 0
32 -1172 0
42 -1172 0
-43 -1172 1173 0
1172 -1173 0
43 -1173 0
-52 -1173 1174 0
1173 -1174 0
52 -1174 0
-38 -48 1175 0
38 -1175 0
48 -1175 0
-49 -1175 1176 0
1175 -1176 0
49 -1176 0
-58 -1176 1177 0
1176 -1177 0
58 -1177 0
-44 -54 1178 0
44 -1178 0
54 -1178 0
-55 -1178 1179 0
1178 -1179 0
55 -1179 0
-64 -1179 1180 0
1179 -1180 0
64 -1180 0
-50 -60 1181 0
50 -1181 0
60 -1181 0
-61 -1181 1182 0
1181 -1182 0
61 -1182 0
-70 -1182 1183 0
1182 -1183 0
70 -1183 0
-56 -66 1184 0
56 -1184 0
66 -1184 0
-67 -1184 1185 0
1184 -1185 0
67 -1185 0
-76 -1185 1186 0
1185 -1186 0
76 -1186 0
-62 -72 1187 0
62 -1187 0
72 -1187 0
-73 -1187 1188 0
1187 -1188 0
73 -1188 0
-82 -1188 1189 0
1188 -1189 0
82 -1189 0
-68 -78 1190 0
68 -1190 0
78 -1190 0
-79 -1190 1191 0
1190 -1191 0
79 -1191 0
-88 -1191 1192 0
1191 -1192 0
88 -1192 0
-74 -84 1193 0
74 -1193 0
84 -1193 0
-85 -1193 1194 0
1193 -1194 0
85 -1194 0
-94 -1194 1195 0
1194 -1195 0
94 -1195 0
-80 -90 1196 0
80 -1196 0
90 -1196 0
-91 -1196 1197 0
1196 -1197 0
91 -1197 0
-100 -1197 1198 0
1197 -1198 0
100 -1198 0
-86 -96 1199 0
86 -1199 0
96 -1199 0
-97 -1199 1200 0
1199 -1200 0
97 -1200 0
-106 -1200 1201 0
1200 -1201 0
106 -1201 0
-92 -102 1202 0
92 -1202 0
102 -1202 0
-103 -1202 1203 0
1202 -1203 0
103 -1203 0
-112 -1203 1204 0
1203 -1204 0
112 -1204 0
-98 -108 1205 0
98 -1205 0
108 -1205 0
-109 -1205 1206 0
1205 -1206 0
109 -1206 0
-118 -1206 1207 0
1206 -1207 0
118 -1207 0
-104 -114 1208 0
104 -1208 0
114 -1208 0
-115 -1208 1209 0
1208 -1209 0
115 -1209 0
-124 -1209 1210 0
1209 -1210 0
124 -1210 0
-110 -120 1211 0
110 -1211 0
120 -1211 0
-121 -1211 1212 0
1211 -1212 0
121 -1212 0
-130 -1212 1213 0
1212 -1213 0
130 -1213 0
-116 -126 1214 0
116 -1214 0
126 -1214 0
-127 -1214 1215 0
1214 -1215 0
127 -1215 0
-136 -1215 1216 0
1215 -1216 0
136 -1216 0
-122 -132 1217 0
122 -1217 0
132 -1217 0
-133 -1217 1218 0
1217 -1218 0
133 -1218 0
-142 -1218 1219 0
1218 -1219 0
142 -1219 0
-128 -138 1220 0
128 -1220 0
138 -1220 0
-139 -1220 1221 0
1220 -1221 0
139 -1221 0
-148 -1221 1222 0
1221 -1222 0
148 -1222 0
-134 -144 1223 0
134 -1223 0
144 -1223 0
-145 -1223 1224 0
1223 -1224 0
145 -1224 0
-154 -1224 1225 0
1224 -1225 0
154 -1225 0
-140 -150 1226 0
140 -1226 0
150 -1226 0
-151 -1226 1227 0
1226 -1227 0
151 -1227 0
-160 -1227 1228 0
1227 -1228 0
160 -1228 0
-146 -156 1229 0
146 -1229 0
156 -1229 0
-157 -1229 1230 0
1229 -1230 0
157 -1230 0
-166 -1230 1231 0
1230 -1231 0
166 -1231 0
1228 1231 -1232 0
-1231 1232 0
-1228 1232 0
1225 1232 -1233 0
-1232 1233 0
-1225 1233 0
1222 1233 -1234 0
-1233 1234 0
-1222 1234 0
1219 1234 -1235 0
-1234 1235 0
-1219 1235 0
1216 1235 -1236 0
-1235 1236 0
-1216 1236 0
1213 1236 -1237 0
-1236 1237 0
-1213 1237 0
1210 1237 -1238 0
-1237 1238 0
-1210 1238 0
1207 1238 -1239 0
-1238 1239 0
-1207 1239 0
1204 1239 -1240 0
-1239 1240 0
-1204 1240 0
1201 1240 -1241 0
-1240 1241 0
-1201 1241 0
1198 1241 -1242 0
-1241 1242 0
-1198 1242 0
1195 1242 -1243 0
-1242 1243 0
-1195 1243 0
1192 1243 -1244 0
-1243 1244 0
-1192 1244 0
1189 1244 -1245 0
-1244 1245 0
-1189 1245 0
1186 1245 -1246 0
-1245 1246 0
-1186 1246 0
1183 1246 -1247 0
-1246 1247 0
-1183 1247 0
1180 1247 -1248 0
-1247 1248 0
-1180 1248 0
1177 1248 -1249 0
-1248 1249 0
-1177 1249 0
1174 1249 -1250 0
-1249 1250 0
-1174 1250 0
1171 1250 -1251 0
-1250 1251 0
-1171 1251 0
1168 1251 -1252 0
-1251 1252 0
-1168 1252 0
1165 1252 -1253 0
-1252 1253 0
-1165 1253 0
1162 1253 -1254 0
-1253 1254 0
-1162 1254 0
1159 1254 0
-2 -12 1255 0
2 -1255 0
12 -1255 0
-16 -1255 1256 0
1255 -1256 0
16 -1256 0
-19 -1256 1257 0
1256 -1257 0
19 -1257 0
-8 -18 1258 0
8 -1258 0
18 -1258 0
-22 -1258 1259 0
1258 -1259 0
22 -1259 0
-25 -1259 1260 0
1259 -1260 0
25 -1260 0
-14 -24 1261 0
14 -1261 0
24 -1261 0
-28 -1261 1262 0
1261 -1262 0
28 -1262 0
-31 -1262 1263 0
1262 -1263 0
31 -1263 0
-20 -30 1264 0
20 -1264 0
30 -1264 0
-34 -1264 1265 0
1264 -1265 0
34 -1265 0
-37 -1265 1266 0
1265 -1266 0
37 -1266 0
-26 -36 1267 0
26 -1267 0
36 -1267 0
-40 -1267 1268 0
1267 -1268 0
40 -1268 0
-43 -1268 1269 0
1268 -1269 0
43 -1269 0
-32 -42 1270 0
32 -1270 0
42 -1270 0
-46 -1270 1271 0
1270 -1271 0
46 -1271 0
-49 -1271 1272 0
1271 -1272 0
49 -1272 0
-38 -48 1273 0
38 -1273 0
48 -1273 0
-52 -1273 1274 0
1273 -1274 0
52 -1274 0
-55 -1274 1275 0
1274 -1275 0
55 -1275 0
-44 -54 1276 0
44 -1276 0
54 -1276 0
-58 -1276 1277 0
1276 -1277 0
58 -1277 0
-61 -1277 1278 0
1277 -1278 0
61 -1278 0
-50 -60 1279 0
50 -1279 0
60 -1279 0
-64 -1279 1280 0
1279 -1280 0
64 -1280 0
-67 -1280 1281 0
1280 -1281 0
67 -1281 0
-56 -66 1282 0
56 -1282 0
66 -1282 0
-70 -1282 1283 0
1282 -1283 0
70 -1283 0
-73 -1283 1284 0
1283 -1284 0
73 -1284 0
-62 -72 1285 0
62 -1285 0
72 -1285 0
-76 -1285 1286 0
1285 -1286 0
76 -1286 0
-79 -1286 1287 0
1286 -1287 0
79 -1287 0
-68 -78 1288 0
68 -1288 0
78 -1288 0
-82 -1288 1289 0
1288 -1289 0
82 -1289 0
-85 -1289 1290 0
1289 -1290 0
85 -1290 0
-74 -84 1291 0
74 -1291 0
84 -1291 0
-88 -1291 1292 0
1291 -1292 0
88 -1292 0
-91 -1292 1293 0
1292 -1293 0
91 -1293 0
-80 -90 1294 0
80 -1294 0
90 -1294 0
-94 -1294 1295 0
1294 -1295 0
94 -1295 0
-97 -1295 1296 0
1295 -1296 0
97 -1296 0
-86 -96 1297 0
86 -1297 0
96 -1297 0
-100 -1297 1298 0
1297 -1298 0
100 -1298 0
-103 -1298 1299 0
1298 -1299 0
103 -1299 0
-92 -102 1300 0
92 -1300 0
102 -1300 0
-106 -1300 1301 0
1300 -1301 0
106 -1301 0
-109 -1301 1302 0
1301 -1302 0
109 -1302 0
-98 -108 1303 0
98 -1303 0
108 -1303 0
-112 -1303 1304 0
1303 -1304 0
112 -1304 0
-115 -1304 1305 0
1304 -1305 0
115 -1305 0
-104 -114 1306 0
104 -1306 0
114 -1306 0
-118 -1306 1307 0
1306 -1307 0
118 -1307 0
-121 -1307 1308 0
1307 -1308 0
121 -1308 0
-110 -120 1309 0
110 -1309 0
120 -1309 0
-124 -1309 1310 0
1309 -1310 0
124 -1310 0
-127 -1310 1311 0
1310 -1311 0
127 -1311 0
-116 -126 1312 0
116 -1312 0
126 -1312 0
-130 -1312 1313 0
1312 -1313 0
130 -1313 0
-133 -1313 1314 0
1313 -1314 0
133 -1314 0
-122 -132 1315 0
122 -1315 0
132 -1315 0
-136 -1315 1316 0
1315 -1316 0
136 -1316 0
-139 -1316 1317 0
1316 -1317 0
139 -1317 0
-128 -138 1318 0
128 -1318 0
138 -1318 0
-142 -1318 1319 0
1318 -1319 0
142 -1319 0
-145 -1319 1320 0
1319 -1320 0
145 -1320 0
-134 -144 1321 0
134 -1321 0
144 -1321 0
-148 -1321 1322 0
1321 -1322 0
148 -1322 0
-151 -1322 1323 0
1322 -1323 0
151 -1323 0
-140 -150 1324 0
140 -1324 0
150 -1324 0
-154 -1324 1325 0
1324 -1325 0
154 -1325 0
-157 -1325 1326 0
1325 -1326 0
157 -1326 0
-146 -156 1327 0
146 -1327 0
156 -1327 0
-160 -1327 1328 0
1327 -1328 0
160 -1328 0
-163 -1328 1329 0
1328 -1329 0
163 -1329 0
1326 1329 -1330 0
-1329 1330 0
-1326 1330 0
1323 1330 -1331 0
-1330 1331 0
-1323 1331 0
1320 1331 -1332 0
-1331 1332 0
-1320 1332 0
1317 1332 -1333 0
-1332 1333 0
-1317 1333 0
1314 1333 -1334 0
-1333 1334 0
-1314 1334 0
1311 1334 -1335 0
-1334 1335 0
-1311 1335 0
1308 1335 -1336 0
-1335 1336 0
-1308 1336 0
1305 1336 -1337 0
-1336 1337 0
-1305 1337 0
1302 1337 -1338 0
-1337 1338 0
-1302 1338 0
1299 1338 -1339 0
-1338 1339 0
-1299 1339 0
1296 1339 -1340 0
-1339 1340 0
-1296 1340 0
1293 1340 -1341 0
-1340 1341 0
-1293 1341 0
1290 1341 -1342 0
-1341 1342 0
-1290 1342 0
1287 1342 -1343 0
-1342 1343 0
-1287 1343 0
1284 1343 -1344 0
-1343 1344 0
-1284 1344 0
1281 1344 -1345 0
-1344 1345 0
-1281 1345 0
1278 1345 -1346 0
-1345 1346 0
-1278 1346 0
1275 1346 -1347 0
-1346 1347 0
-1275 1347 0
1272 1347 -1348 0
-1347 1348 0
-1272 1348 0
1269 1348 -1349 0
-1348 1349 0
-1269 1349 0
1266 1349 -1350 0
-1349 1350 0
-1266 1350 0
1263 1350 -1351 0
-1350 1351 0
-1263 1351 0
1260 1351 -1352 0
-1351 1352 0
-1260 1352 0
1257 1352 0
-4 -8 1353 0
4 -1353 0
8 -1353 0
-13 -1353 1354 0
1353 -1354 0
13 -1354 0
-24 -1354 1355 0
1354 -1355 0
24 -1355 0
-10 -14 1356 0
10 -1356 0
14 -1356 0
-19 -1356 1357 0
1356 -1357 0
19 -1357 0
-30 -1357 1358 0
1357 -1358 0
30 -1358 0
-16 -20 1359 0
16 -1359 0
20 -1359 0
-25 -1359 1360 0
1359 -1360 0
25 -1360 0
-36 -1360 1361 0
1360 -1361 0
36 -1361 0
-22 -26 1362 0
22 -1362 0
26 -1362 0
-31 -1362 1363 0
1362 -1363 0
31 -1363 0
-42 -1363 1364 0
1363 -1364 0
42 -1364 0
-28 -32 1365 0
28 -1365 0
32 -1365 0
-37 -1365 1366 0
1365 -1366 0
37 -1366 0
-48 -1366 1367 0
1366 -1367 0
48 -1367 0
-34 -38 1368 0
34 -1368 0
38 -1368 0
-43 -1368 1369 0
1368 -1369 0
43 -1369 0
-54 -1369 1370 0
1369 -1370 0
54 -1370 0
-40 -44 1371 0
40 -1371 0
44 -1371 0
-49 -1371 1372 0
1371 -1372 0
49 -1372 0
-60 -1372 1373 0
1372 -1373 0
60 -1373 0
-46 -50 1374 0
46 -1374 0
50 -1374 0
-55 -1374 1375 0
1374 -1375 0
55 -1375 0
-66 -1375 1376 0
1375 -1376 0
66 -1376 0
-52 -56 1377 0
52 -1377 0
56 -1377 0
-61 -1377 1378 0
1377 -1378 0
61 -1378 0
-72 -1378 1379 0
1378 -1379 0
72 -1379 0
-58 -62 1380 0
58 -1380 0
62 -1380 0
-67 -1380 1381 0
1380 -1381 0
67 -1381 0
-78 -1381 1382 0
1381 -1382 0
78 -1382 0
-64 -68 1383 0
64 -1383 0
68 -1383 0
-73 -1383 1384 0
1383 -1384 0
73 -1384 0
-84 -1384 1385 0
1384 -1385 0
84 -1385 0
-70 -74 1386 0
70 -1386 0
74 -1386 0
-79 -1386 1387 0
1386 -1387 0
79 -1387 0
-90 -1387 1388 0
1387 -1388 0
90 -1388 0
-76 -80 1389 0
76 -1389 0
80 -1389 0
-85 -1389 1390 0
1389 -1390 0
85 -1390 0
-96 -1390 1391 0
1390 -1391 0
96 -1391 0
-82 -86 1392 0
82 -1392 0
86 -1392 0
-91 -1392 1393 0
1392 -1393 0
91 -1393 0
-102 -1393 1394 0
1393 -1394 0
102 -1394 0
-88 -92 1395 0
88 -1395 0
92 -1395 0
-97 -1395 1396 0
1395 -1396 0
97 -1396 0
-108 -1396 1397 0
1396 -1397 0
108 -1397 0
-94 -98 1398 0
94 -1398 0
98 -1398 0
-103 -1398 1399 0
1398 -1399 0
103 -1399 0
-114 -1399 1400 0
1399 -1400 0
114 -1400 0
-100 -104 1401 0
100 -1401 0
104 -1401 0
-109 -1401 1402 0
1401 -1402 0
109 -1402 0
-120 -1402 1403 0
1402 -1403 0
120 -1403 0
-106 -110 1404 0
106 -1404 0
110 -1404 0
-115 -1404 1405 0
1404 -1405 0
115 -1405 0
-126 -1405 1406 0
1405 -1406 0
126 -1406 0
-112 -116 1407 0
112 -1407 0
116 -1407 0
-121 -1407 1408 0
1407 -1408 0
121 -1408 0
-132 -1408 1409 0
1408 -1409 0
132 -1409 0
-118 -122 1410 0
118 -1410 0
122 -1410 0
-127 -1410 1411 0
1410 -1411 0
127 -1411 0
-138 -1411 1412 0
1411 -1412 0
138 -1412 0
-124 -128 1413 0
124 -1413 0
128 -1413 0
-133 -1413 1414 0
1413 -1414 0
133 -1414 0
-144 -1414 1415 0
1414 -1415 0
144 -1415 0
-130 -134 1416 0
130 -1416 0
134 -1416 0
-139 -1416 1417 0
1416 -1417 0
139 -1417 0
-150 -1417 1418 0
1417 -1418 0
150 -1418 0
-136 -140 1419 0
136 -1419 0
140 -1419 0
-145 -1419 1420 0
1419 -1420 0
145 -1420 0
-156 -1420 1421 0
1420 -1421 0
156 -1421 0
-142 -146 1422 0
142 -1422 0
146 -1422 0
-151 -1422 1423 0
1422 -1423 0
151 -1423 0
-162 -1423 1424 0
1423 -1424 0
162 -1424 0
-148 -152 1425 0
148 -1425 0
152 -1425 0
-157 -1425 1426 0
1425 -1426 0
157 -1426 0
-168 -1426 1427 0
1426 -1427 0
168 -1427 0
1424 1427 -1428 0
-1427 1428 0
-1424 1428 0
1421 1428 -1429 0
-1428 1429 0
-1421 1429 0
1418 1429 -1430 0
-1429 1430 0
-1418 1430 0
1415 1430 -1431 0
-1430 1431 0
-1415 1431 0
1412 1431 -1432 0
-1431 1432 0
-1412 1432 0
1409 1432 -1433 0
-1432 1433 0
-1409 1433 0
1406 1433 -1434 0
-1433 1434 0
-1406 1434 0
1403 1434 -1435 0
-1434 1435 0
-1403 1435 0
1400 1435 -1436 0
-1435 1436 0
-1400 1436 0
1397 1436 -1437 0
-1436 1437 0
-1397 1437 0
1394 1437 -1438 0
-1437 1438 0
-1394 1438 0
1391 1438 -1439 0
-1438 1439 0
-1391 1439 0
1388 1439 -1440 0
-1439 1440 0
-1388 1440 0
1385 1440 -1441 0
-1440 1441 0
-1385 1441 0
1382 1441 -1442 0
-1441 1442 0
-1382 1442 0
1379 1442 -1443 0
-1442 1443 0
-1379 1443 0
1376 1443 -1444 0
-1443 1444 0
-1376 1444 0
1373 1444 -1445 0
-1444 1445 0
-1373 1445 0
1370 1445 -1446 0
-1445 1446 0
-1370 1446 0
1367 1446 -1447 0
-1446 1447 0
-1367 1447 0
1364 1447 -1448 0
-1447 1448 0
-1364 1448 0
1361 1448 -1449 0
-1448 1449 0
-1361 1449 0
1358 1449 -1450 0
-1449 1450 0
-1358 1450 0
1355 1450 0
-4 -8 1451 0
4 -1451 0
8 -1451 0
-18 -1451 1452 0
1451 -1452 0
18 -1452 0
-19 -1452 1453 0
1452 -1453 0
19 -1453 0
-10 -14 1454 0
10 -1454 0
14 -1454 0
-24 -1454 1455 0
1454 -1455 0
24 -1455 0
-25 -1455 1456 0
1455 -1456 0
25 -1456 0
-16 -20 1457 0
16 -1457 0
20 -1457 0
-30 -1457 1458 0
1457 -1458 0
30 -1458 0
-31 -1458 1459 0
1458 -1459 0
31 -1459 0
-22 -26 1460 0
22 -1460 0
26 -1460 0
-36 -1460 1461 0
1460 -1461 0
36 -1461 0
-37 -1461 1462 0
1461 -1462 0
37 -1462 0
-28 -32 1463 0
28 -1463 0
32 -1463 0
-42 -1463 1464 0
1463 -1464 0
42 -1464 0
-43 -1464 1465 0
1464 -1465 0
43 -1465 0
-34 -38 1466 0
34 -1466 0
38 -1466 0
-48 -1466 1467 0
1466 -1467 0
48 -1467 0
-49 -1467 1468 0
1467 -1468 0
49 -1468 0
-40 -44 1469 0
40 -1469 0
44 -1469 0
-54 -1469 1470 0
1469 -1470 0
54 -1470 0
-55 -1470 1471 0
1470 -1471 0
55 -1471 0
-46 -50 1472 0
46 -1472 0
50 -1472 0
-60 -1472 1473 0
1472 -1473 0
60 -1473 0
-61 -1473 1474 0
1473 -1474 0
61 -1474 0
-52 -56 1475 0
52 -1475 0
56 -1475 0
-66 -1475 1476 0
1475 -1476 0
66 -1476 0
-67 -1476 1477 0
1476 -1477 0
67 -1477 0
-58 -62 1478 0
58 -1478 0
62 -1478 0
-72 -1478 1479 0
1478 -1479 0
72 -1479 0
-73 -1479 1480 0
1479 -1480 0
73 -1480 0
-64 -68 1481 0
64 -1481 0
68 -1481 0
-78 -1481 1482 0
1481 -1482 0
78 -1482 0
-79 -1482 1483 0
1482 -1483 0
79 -1483 0
-70 -74 1484 0
70 -1484 0
74 -1484 0
-84 -1484 1485 0
1484 -1485 0
84 -1485 0
-85 -1485 1486 0
1485 -1486 0
85 -1486 0
-76 -80 1487 0
76 -1487 0
80 -1487 0
-90 -1487 1488 0
1487 -1488 0
90 -1488 0
-91 -1488 1489 0
1488 -1489 0
91 -1489 0
-82 -86 1490 0
82 -1490 0
86 -1490 0
-96 -1490 1491 0
1490 -1491 0
96 -1491 0
-97 -1491 1492 0
1491 -1492 0
97 -1492 0
-88 -92 1493 0
88 -1493 0
92 -1493 0
-102 -1493 1494 0
1493 -1494 0
102 -1494 0
-103 -1494 1495 0
1494 -1495 0
103 -1495 0
-94 -98 1496 0
94 -1496 0
98 -1496 0
-108 -1496 1497 0
1496 -1497 0
108 -1497 0
-109 -1497 1498 0
1497 -1498 0
109 -1498 0
-100 -104 1499 0
100 -1499 0
104 -1499 0
-114 -1499 1500 0
1499 -1500 0
114 -1500 0
-115 -1500 1501 0
1500 -1501 0
115 -1501 0
-106 -110 1502 0
106 -1502 0
110 -1502 0
-120 -1502 1503 0
1502 -1503 0
120 -1503 0
-121 -1503 1504 0
1503 -1504 0
121 -1504 0
-112 -116 1505 0
112 -1505 0
116 -1505 0
-126 -1505 1506 0
1505 -1506 0
126 -1506 0
-127 -1506 1507 0
1506 -1507 0
127 -1507 0
-118 -122 1508 0
118 -1508 0
122 -1508 0
-132 -1508 1509 0
1508 -1509 0
132 -1509 0
-133 -1509 1510 0
1509 -1510 0
133 -1510 0
-124 -128 1511 0
124 -1511 0
128 -1511 0
-138 -1511 1512 0
1511 -1512 0
138 -1512 0
-139 -1512 1513 0
1512 -1513 0
139 -1513 0
-130 -134 1514 0
130 -1514 0
134 -1514 0
-144 -1514 1515 0
1514 -1515 0
144 -1515 0
-145 -1515 1516 0
1515 -1516 0
145 -1516 0
-136 -140 1517 0
136 -1517 0
140 -1517 0
-150 -1517 1518 0
1517 -1518 0
150 -1518 0
-151 -1518 1519 0
1518 -1519 0
151 -1519 0
-142 -146 1520 0
142 -1520 0
146 -1520 0
-156 -1520 1521 0
1520 -1521 0
156 -1521 0
-157 -1521 1522 0
1521 -1522 0
157 -1522 0
-148 -152 1523 0
148 -1523 0
152 -1523 0
-162 -1523 1524 0
1523 -1524 0
162 -1524 0
-163 -1524 1525 0
1524 -1525 0
163 -1525 0
1522 1525 -1526 0
-1525 1526 0
-1522 1526 0
1519 1526 -1527 0
-1526 1527 0
-1519 1527 0
1516 1527 -1528 0
-1527 1528 0
-1516 1528 0
1513 1528 -1529 0
-1528 1529 0
-1513 1529 0
1510 1529 -1530 0
-1529 1530 0
-1510 1530 0
1507 1530 -1531 0
-1530 1531 0
-1507 1531 0
1504 1531 -1532 0
-1531 1532 0
-1504 1532 0
1501 1532 -1533 0
-1532 1533 0
-1501 1533 0
1498 1533 -1534 0
-1533 1534 0
-1498 1534 0
1495 1534 -1535 0
-1534 1535 0
-1495 1535 0
1492 1535 -1536 0
-1535 1536 0
-1492 1536 0
1489 1536 -1537 0
-1536 1537 0
-1489 1537 0
1486 1537 -1538 0
-1537 1538 0
-1486 1538 0
1483 1538 -1539 0
-1538 1539 0
-1483 1539 0
1480 1539 -1540 0
-1539 1540 0
-1480 1540 0
1477 1540 -1541 0
-1540 1541 0
-1477 1541 0
1474 1541 -1542 0
-1541 1542 0
-1474 1542 0
1471 1542 -1543 0
-1542 1543 0
-1471 1543 0
1468 1543 -1544 0
-1543 1544 0
-1468 1544 0
1465 1544 -1545 0
-1544 1545 0
-1465 1545 0
1462 1545 -1546 0
-1545 1546 0
-1462 1546 0
1459 1546 -1547 0
-1546 1547 0
-1459 1547 0
1456 1547 -1548 0
-1547 1548 0
-1456 1548 0
1453 1548 0
-4 -7 1549 0
4 -1549 0
7 -1549 0
-14 -1549 1550 0
1549 -1550 0
14 -1550 0
-24 -1550 1551 0
1550 -1551 0
24 -1551 0
-10 -13 1552 0
10 -1552 0
13 -1552 0
-20 -1552 1553 0
1552 -1553 0
20 -1553 0
-30 -1553 1554 0
1553 -1554 0
30 -1554 0
-16 -19 1555 0
16 -1555 0
19 -1555 0
-26 -1555 1556 0
1555 -1556 0
26 -1556 0
-36 -1556 1557 0
1556 -1557 0
36 -1557 0
-22 -25 1558 0
22 -1558 0
25 -1558 0
-32 -1558 1559 0
1558 -1559 0
32 -1559 0
-42 -1559 1560 0
1559 -1560 0
42 -1560 0
-28 -31 1561 0
28 -1561 0
31 -1561 0
-38 -1561 1562 0
1561 -1562 0
38 -1562 0
-48 -1562 1563 0
1562 -1563 0
48 -1563 0
-34 -37 1564 0
34 -1564 0
37 -1564 0
-44 -1564 1565 0
1564 -1565 0
44 -1565 0
-54 -1565 1566 0
1565 -1566 0
54 -1566 0
-40 -43 1567 0
40 -1567 0
43 -1567 0
-50 -1567 1568 0
1567 -1568 0
50 -1568 0
-60 -1568 1569 0
1568 -1569 0
60 -1569 0
-46 -49 1570 0
46 -1570 0
49 -1570 0
-56 -1570 1571 0
1570 -1571 0
56 -1571 0
-66 -1571 1572 0
1571 -1572 0
66 -1572 0
-52 -55 1573 0
52 -1573 0
55 -1573 0
-62 -1573 1574 0
1573 -1574 0
62 -1574 0
-72 -1574 1575 0
1574 -1575 0
72 -1575 0
-58 -61 1576 0
58 -1576 0
61 -1576 0
-68 -1576 1577 0
1576 -1577 0
68 -1577 0
-78 -1577 1578 0
1577 -1578 0
78 -1578 0
-64 -67 1579 0
64 -1579 0
67 -1579 0
-74 -1579 1580 0
1579 -1580 0
74 -1580 0
-84 -1580 1581 0
1580 -1581 0
84 -1581 0
-70 -73 1582 0
70 -1582 0
73 -1582 0
-80 -1582 1583 0
1582 -1583 0
80 -1583 0
-90 -1583 1584 0
1583 -1584 0
90 -1584 0
-76 -79 1585 0
76 -1585 0
79 -1585 0
-86 -1585 1586 0
1585 -1586 0
86 -1586 0
-96 -1586 1587 0
1586 -1587 0
96 -1587 0
-82 -85 1588 0
82 -1588 0
85 -1588 0
-92 -1588 1589 0
1588 -1589 0
92 -1589 0
-102 -1589 1590 0
1589 -1590 0
102 -1590 0
-88 -91 1591 0
88 -1591 0
91 -1591 0
-98 -1591 1592 0
1591 -1592 0
98 -1592 0
-108 -1592 1593 0
1592 -1593 0
108 -1593 0
-94 -97 1594 0
94 -1594 0
97 -1594 0
-104 -1594 1595 0
1594 -1595 0
104 -1595 0
-114 -1595 1596 0
1595 -1596 0
114 -1596 0
-100 -103 1597 0
100 -1597 0
103 -1597 0
-110 -1597 1598 0
1597 -1598 0
110 -1598 0
-120 -1598 1599 0
1598 -1599 0
120 -1599 0
-106 -109 1600 0
106 -1600 0
109 -1600 0
-116 -1600 1601 0
1600 -1601 0
116 -1601 0
-126 -1601 1602 0
1601 -1602 0
126 -1602 0
-112 -115 1603 0
112 -1603 0
115 -1603 0
-122 -1603 1604 0
1603 -1604 0
122 -1604 0
-132 -1604 1605 0
1604 -1605 0
132 -1605 0
-118 -121 1606 0
118 -1606 0
121 -1606 0
-128 -1606 1607 0
1606 -1607 0
128 -1607 0
-138 -1607 1608 0
1607 -1608 0
138 -1608 0
-124 -127 1609 0
124 -1609 0
127 -1609 0
-134 -1609 1610 0
1609 -1610 0
134 -1610 0
-144 -1610 1611 0
1610 -1611 0
144 -1611 0
-130 -133 1612 0
130 -1612 0
133 -1612 0
-140 -1612 1613 0
1612 -1613 0
140 -1613 0
-150 -1613 1614 0
1613 -1614 0
150 -1614 0
-136 -139 1615 0
136 -1615 0
139 -1615 0
-146 -1615 1616 0
1615 -1616 0
146 -1616 0
-156 -1616 1617 0
1616 -1617 0
156 -1617 0
-142 -145 1618 0
142 -1618 0
145 -1618 0
-152 -1618 1619 0
1618 -1619 0
152 -1619 0
-162 -1619 1620 0
1619 -1620 0
162 -1620 0
-148 -151 1621 0
148 -1621 0
151 -1621 0
-158 -1621 1622 0
1621 -1622 0
158 -1622 0
-168 -1622 1623 0
1622 -1623 0
168 -1623 0
1620 1623 -1624 0
-1623 1624 0
-1620 1624 0
1617 1624 -1625 0
-1624 1625 0
-1617 1625 0
1614 1625 -1626 0
-1625 1626 0
-1614 1626 0
1611 1626 -1627 0
-1626 1627 0
-1611 1627 0
1608 1627 -1628 0
-1627 1628 0
-1608 1628 0
1605 1628 -1629 0
-1628 1629 0
-1605 1629 0
1602 1629 -1630 0
-1629 1630 0
-1602 1630 0
1599 1630 -1631 0
-1630 1631 0
-1599 1631 0
1596 1631 -1632 0
-1631 1632 0
-1596 1632 0
1593 1632 -1633 0
-1632 1633 0
-1593 1633 0
1590 1633 -1634 0
-1633 1634 0
-1590 1634 0
1587 1634 -1635 0
-1634 1635 0
-1587 1635 0
1584 1635 -1636 0
-1635 1636 0
-1584 1636 0
1581 1636 -1637 0
-1636 1637 0
-1581 1637 0
1578 1637 -1638 0
-1637 1638 0
-1578 1638 0
1575 1638 -1639 0
-1638 1639 0
-1575 1639 0
1572 1639 -1640 0
-1639 1640 0
-1572 1640 0
1569 1640 -1641 0
-1640 1641 0
-1569 1641 0
1566 1641 -1642 0
-1641 1642 0
-1566 1642 0
1563 1642 -1643 0
-1642 1643 0
-1563 1643 0
1560 1643 -1644 0
-1643 1644 0
-1560 1644 0
1557 1644 -1645 0
-1644 1645 0
-1557 1645 0
1554 1645 -1646 0
-1645 1646 0
-1554 1646 0
1551 1646 0
-4 -7 1647 0
4 -1647 0
7 -1647 0
-18 -1647 1648 0
1647 -1648 0
18 -1648 0
-20 -1648 1649 0
1648 -1649 0
20 -1649 0
-10 -13 1650 0
10 -1650 0
13 -1650 0
-24 -1650 1651 0
1650 -1651 0
24 -1651 0
-26 -1651 1652 0
1651 -1652 0
26 -1652 0
-16 -19 1653 0
16 -1653 0
19 -1653 0
-30 -1653 1654 0
1653 -1654 0
30 -1654 0
-32 -1654 1655 0
1654 -1655 0
32 -1655 0
-22 -25 1656 0
22 -1656 0
25 -1656 0
-36 -1656 1657 0
1656 -1657 0
36 -1657 0
-38 -1657 1658 0
1657 -1658 0
38 -1658 0
-28 -31 1659 0
28 -1659 0
31 -1659 0
-42 -1659 1660 0
1659 -1660 0
42 -1660 0
-44 -1660 1661 0
1660 -1661 0
44 -1661 0
-34 -37 1662 0
34 -1662 0
37 -1662 0
-48 -1662 1663 0
1662 -1663 0
48 -1663 0
-50 -1663 1664 0
1663 -1664 0
50 -1664 0
-40 -43 1665 0
40 -1665 0
43 -1665 0
-54 -1665 1666 0
1665 -1666 0
54 -1666 0
-56 -1666 1667 0
1666 -1667 0
56 -1667 0
-46 -49 1668 0
46 -1668 0
49 -1668 0
-60 -1668 1669 0
1668 -1669 0
60 -1669 0
-62 -1669 1670 0
1669 -1670 0
62 -1670 0
-52 -55 1671 0
52 -1671 0
55 -1671 0
-66 -1671 1672 0
1671 -1672 0
66 -1672 0
-68 -1672 1673 0
1672 -1673 0
68 -1673 0
-58 -61 1674 0
58 -1674 0
61 -1674 0
-72 -1674 1675 0
1674 -1675 0
72 -1675 0
-74 -1675 1676 0
1675 -1676 0
74 -1676 0
-64 -67 1677 0
64 -1677 0
67 -1677 0
-78 -1677 1678 0
1677 -1678 0
78 -1678 0
-80 -1678 1679 0
1678 -1679 0
80 -1679 0
-70 -73 1680 0
70 -1680 0
73 -1680 0
-84 -1680 1681 0
1680 -1681 0
84 -1681 0
-86 -1681 1682 0
1681 -1682 0
86 -1682 0
-76 -79 1683 0
76 -1683 0
79 -1683 0
-90 -1683 1684 0
1683 -1684 0
90 -1684 0
-92 -1684 1685 0
1684 -1685 0
92 -1685 0
-82 -85 1686 0
82 -1686 0
85 -1686 0
-96 -1686 1687 0
1686 -1687 0
96 -1687 0
-98 -1687 1688 0
1687 -1688 0
98 -1688 0
-88 -91 1689 0
88 -1689 0
91 -1689 0
-102 -1689 1690 0
1689 -1690 0
102 -1690 0
-104 -1690 1691 0
1690 -1691 0
104 -1691 0
-94 -97 1692 0
94 -1692 0
97 -1692 0
-108 -1692 1693 0
1692 -1693 0
108 -1693 0
-110 -1693 1694 0
1693 -1694 0
110 -1694 0
-100 -103 1695 0
100 -1695 0
103 -1695 0
-114 -1695 1696 0
1695 -1696 0
114 -1696 0
-116 -1696 1697 0
1696 -1697 0
116 -1697 0
-106 -109 1698 0
106 -1698 0
109 -1698 0
-120 -1698 1699 0
1698 -1699 0
120 -1699 0
-122 -1699 1700 0
1699 -1700 0
122 -1700 0
-112 -115 1701 0
112 -1701 0
115 -1701 0
-126 -1701 1702 0
1701 -1702 0
126 -1702 0
-128 -1702 1703 0
1702 -1703 0
128 -1703 0
-118 -121 1704 0
118 -1704 0
121 -1704 0
-132 -1704 1705 0
1704 -1705 0
132 -1705 0
-134 -1705 1706 0
1705 -1706 0
134 -1706 0
-124 -127 1707 0
124 -1707 0
127 -1707 0
-138 -1707 1708 0
1707 -1708 0
138 -1708 0
-140 -1708 1709 0
1708 -1709 0
140 -1709 0
-130 -133 1710 0
130 -1710 0
133 -1710 0
-144 -1710 1711 0
1710 -1711 0
144 -1711 0
-146 -1711 1712 0
1711 -1712 0
146 -1712 0
-136 -139 1713 0
136 -1713 0
139 -1713 0
-150 -1713 1714 0
1713 -1714 0
150 -1714 0
-152 -1714 1715 0
1714 -1715 0
152 -1715 0
-142 -145 1716 0
142 -1716 0
145 -1716 0
-156 -1716 1717 0
1716 -1717 0
156 -1717 0
-158 -1717 1718 0
1717 -1718 0
158 -1718 0
-148 -151 1719 0
148 -1719 0
151 -1719 0
-162 -1719 1720 0
1719 -1720 0
162 -1720 0
-164 -1720 1721 0
1720 -1721 0
164 -1721 0
1718 1721 -1722 0
-1721 1722 0
-1718 1722 0
1715 1722 -1723 0
-1722 1723 0
-1715 1723 0
1712 1723 -1724 0
-1723 1724 0
-1712 1724 0
1709 1724 -1725 0
-1724 1725 0
-1709 1725 0
1706 1725 -1726 0
-1725 1726 0
-1706 1726 0
1703 1726 -1727 0
-1726 1727 0
-1703 1727 0
1700 1727 -1728 0
-1727 1728 0
-1700 1728 0
1697 1728 -1729 0
-1728 1729 0
-1697 1729 0
1694 1729 -1730 0
-1729 1730 0
-1694 1730 0
1691 1730 -1731 0
-1730 1731 0
-1691 1731 0
1688 1731 -1732 0
-1731 1732 0
-1688 1732 0
1685 1732 -1733 0
-1732 1733 0
-1685 1733 0
1682 1733 -1734 0
-1733 1734 0
-1682 1734 0
1679 1734 -1735 0
-1734 1735 0
-1679 1735 0
1676 1735 -1736 0
-1735 1736 0
-1676 1736 0
1673 1736 -1737 0
-1736 1737 0
-1673 1737 0
1670 1737 -1738 0
-1737 1738 0
-1670 1738 0
1667 1738 -1739 0
-1738 1739 0
-1667 1739 0
1664 1739 -1740 0
-1739 1740 0
-1664 1740 0
1661 1740 -1741 0
-1740 1741 0
-1661 1741 0
1658 1741 -1742 0
-1741 1742 0
-1658 1742 0
1655 1742 -1743 0
-1742 1743 0
-1655 1743 0
1652 1743 -1744 0
-1743 1744 0
-1652 1744 0
1649 1744 0
-2 1745 0
2 -1745 0
-7 -1745 1746 0
1745 -1746 0
7 -1746 0
-4 -12 1747 0
4 -1747 0
12 -1747 0
-14 -1747 1748 0
1747 -1748 0
14 -1748 0
-19 -1748 1749 0
1748 -1749 0
19 -1749 0
-10 -18 1750 0
10 -1750 0
18 -1750 0
-20 -1750 1751 0
1750 -1751 0
20 -1751 0
-25 -1751 1752 0
1751 -1752 0
25 -1752 0
-16 -24 1753 0
16 -1753 0
24 -1753 0
-26 -1753 1754 0
1753 -1754 0
26 -1754 0
-31 -1754 1755 0
1754 -1755 0
31 -1755 0
-22 -30 1756 0
22 -1756 0
30 -1756 0
-32 -1756 1757 0
1756 -1757 0
32 -1757 0
-37 -1757 1758 0
1757 -1758 0
37 -1758 0
-28 -36 1759 0
28 -1759 0
36 -1759 0
-38 -1759 1760 0
1759 -1760 0
38 -1760 0
-43 -1760 1761 0
1760 -1761 0
43 -1761 0
-34 -42 1762 0
34 -1762 0
42 -1762 0
-44 -1762 1763 0
1762 -1763 0
44 -1763 0
-49 -1763 1764 0
1763 -1764 0
49 -1764 0
-40 -48 1765 0
40 -1765 0
48 -1765 0
-50 -1765 1766 0
1765 -1766 0
50 -1766 0
-55 -1766 1767 0
1766 -1767 0
55 -1767 0
-46 -54 1768 0
46 -1768 0
54 -1768 0
-56 -1768 1769 0
1768 -1769 0
56 -1769 0
-61 -1769 1770 0
1769 -1770 0
61 -1770 0
-52 -60 1771 0
52 -1771 0
60 -1771 0
-62 -1771 1772 0
1771 -1772 0
62 -1772 0
-67 -1772 1773 0
1772 -1773 0
67 -1773 0
-58 -66 1774 0
58 -1774 0
66 -1774 0
-68 -1774 1775 0
1774 -1775 0
68 -1775 0
-73 -1775 1776 0
1775 -1776 0
73 -1776 0
-64 -72 1777 0
64 -1777 0
72 -1777 0
-74 -1777 1778 0
1777 -1778 0
74 -1778 0
-79 -1778 1779 0
1778 -1779 0
79 -1779 0
-70 -78 1780 0
70 -1780 0
78 -1780 0
-80 -1780 1781 0
1780 -1781 0
80 -1781 0
-85 -1781 1782 0
1781 -1782 0
85 -1782 0
-76 -84 1783 0
76 -1783 0
84 -1783 0
-86 -1783 1784 0
1783 -1784 0
86 -1784 0
-91 -1784 1785 0
1784 -1785 0
91 -1785 0
-82 -90 1786 0
82 -1786 0
90 -1786 0
-92 -1786 1787 0
1786 -1787 0
92 -1787 0
-97 -1787 1788 0
1787 -1788 0
97 -1788 0
-88 -96 1789 0
88 -1789 0
96 -1789 0
-98 -1789 1790 0
1789 -1790 0
98 -1790 0
-103 -1790 1791 0
1790 -1791 0
103 -1791 0
-94 -102 1792 0
94 -1792 0
102 -1792 0
-104 -1792 1793 0
1792 -1793 0
104 -1793 0
-109 -1793 1794 0
1793 -1794 0
109 -1794 0
-100 -108 1795 0
100 -1795 0
108 -1795 0
-110 -1795 1796 0
1795 -1796 0
110 -1796 0
-115 -1796 1797 0
1796 -1797 0
115 -1797 0
-106 -114 1798 0
106 -1798 0
114 -1798 0
-116 -1798 1799 0
1798 -1799 0
116 -1799 0
-121 -1799 1800 0
1799 -1800 0
121 -1800 0
-112 -120 1801 0
112 -1801 0
120 -1801 0
-122 -1801 1802 0
1801 -1802 0
122 -1802 0
-127 -1802 1803 0
1802 -1803 0
127 -1803 0
-118 -126 1804 0
118 -1804 0
126 -1804 0
-128 -1804 1805 0
1804 -1805 0
128 -1805 0
-133 -1805 1806 0
1805 -1806 0
133 -1806 0
-124 -132 1807 0
124 -1807 0
132 -1807 0
-134 -1807 1808 0
1807 -1808 0
134 -1808 0
-139 -1808 1809 0
1808 -1809 0
139 -1809 0
-130 -138 1810 0
130 -1810 0
138 -1810 0
-140 -1810 1811 0
1810 -1811 0
140 -1811 0
-145 -1811 1812 0
1811 -1812 0
145 -1812 0
-136 -144 1813 0
136 -1813 0
144 -1813 0
-146 -1813 1814 0
1813 -1814 0
146 -1814 0
-151 -1814 1815 0
1814 -1815 0
151 -1815 0
-142 -150 1816 0
142 -1816 0
150 -1816 0
-152 -1816 1817 0
1816 -1817 0
152 -1817 0
-157 -1817 1818 0
1817 -1818 0
157 -1818 0
-148 -156 1819 0
148 -1819 0
156 -1819 0
-158 -1819 1820 0
1819 -1820 0
158 -1820 0
-163 -1820 1821 0
1820 -1821 0
163 -1821 0
1818 1821 -1822 0
-1821 1822 0
-1818 1822 0
1815 1822 -1823 0
-1822 1823 0
-1815 1823 0
1812 1823 -1824 0
-1823 1824 0
-1812 1824 0
1809 1824 -1825 0
-1824 1825 0
-1809 1825 0
1806 1825 -1826 0
-1825 1826 0
-1806 1826 0
1803 1826 -1827 0
-1826 1827 0
-1803 1827 0
1800 1827 -1828 0
-1827 1828 0
-1800 1828 0
1797 1828 -1829 0
-1828 1829 0
-1797 1829 0
1794 1829 -1830 0
-1829 1830 0
-1794 1830 0
1791 1830 -1831 0
-1830 1831 0
-1791 1831 0
1788 1831 -1832 0
-1831 1832 0
-1788 1832 0
1785 1832 -1833 0
-1832 1833 0
-1785 1833 0
1782 1833 -1834 0
-1833 1834 0
-1782 1834 0
1779 1834 -1835 0
-1834 1835 0
-1779 1835 0
1776 1835 -1836 0
-1835 1836 0
-1776 1836 0
1773 1836 -1837 0
-1836 1837 0
-1773 1837 0
1770 1837 -1838 0
-1837 1838 0
-1770 1838 0
1767 1838 -1839 0
-1838 1839 0
-1767 1839 0
1764 1839 -1840 0
-1839 1840 0
-1764 1840 0
1761 1840 -1841 0
-1840 1841 0
-1761 1841 0
1758 1841 -1842 0
-1841 1842 0
-1758 1842 0
1755 1842 -1843 0
-1842 1843 0
-1755 1843 0
1752 1843 -1844 0
-1843 1844 0
-1752 1844 0
1749 1844 -1845 0
-1844 1845 0
-1749 1845 0
1845 -1846 0
-1845 1846 0
1746 1846 0
-1 1847 0
1 -1847 0
-8 -1847 1848 0
1847 -1848 0
8 -1848 0
-4 -12 1849 0
4 -1849 0
12 -1849 0
-13 -1849 1850 0
1849 -1850 0
13 -1850 0
-20 -1850 1851 0
1850 -1851 0
20 -1851 0
-10 -18 1852 0
10 -1852 0
18 -1852 0
-19 -1852 1853 0
1852 -1853 0
19 -1853 0
-26 -1853 1854 0
1853 -1854 0
26 -1854 0
-16 -24 1855 0
16 -1855 0
24 -1855 0
-25 -1855 1856 0
1855 -1856 0
25 -1856 0
-32 -1856 1857 0
1856 -1857 0
32 -1857 0
-22 -30 1858 0
22 -1858 0
30 -1858 0
-31 -1858 1859 0
1858 -1859 0
31 -1859 0
-38 -1859 1860 0
1859 -1860 0
38 -1860 0
-28 -36 1861 0
28 -1861 0
36 -1861 0
-37 -1861 1862 0
1861 -1862 0
37 -1862 0
-44 -1862 1863 0
1862 -1863 0
44 -1863 0
-34 -42 1864 0
34 -1864 0
42 -1864 0
-43 -1864 1865 0
1864 -1865 0
43 -1865 0
-50 -1865 1866 0
1865 -1866 0
50 -1866 0
-40 -48 1867 0
40 -1867 0
48 -1867 0
-49 -1867 1868 0
1867 -1868 0
49 -1868 0
-56 -1868 1869 0
1868 -1869 0
56 -1869 0
-46 -54 1870 0
46 -1870 0
54 -1870 0
-55 -1870 1871 0
1870 -1871 0
55 -1871 0
-62 -1871 1872 0
1871 -1872 0
62 -1872 0
-52 -60 1873 0
52 -1873 0
60 -1873 0
-61 -1873 1874 0
1873 -1874 0
61 -1874 0
-68 -1874 1875 0
1874 -1875 0
68 -1875 0
-58 -66 1876 0
58 -1876 0
66 -1876 0
-67 -1876 1877 0
1876 -1877 0
67 -1877 0
-74 -1877 1878 0
1877 -1878 0
74 -1878 0
-64 -72 1879 0
64 -1879 0
72 -1879 0
-73 -1879 1880 0
1879 -1880 0
73 -1880 0
-80 -1880 1881 0
1880 -1881 0
80 -1881 0
-70 -78 1882 0
70 -1882 0
78 -1882 0
-79 -1882 1883 0
1882 -1883 0
79 -1883 0
-86 -1883 1884 0
1883 -1884 0
86 -1884 0
-76 -84 1885 0
76 -1885 0
84 -1885 0
-85 -1885 1886 0
1885 -1886 0
85 -1886 0
-92 -1886 1887 0
1886 -1887 0
92 -1887 0
-82 -90 1888 0
82 -1888 0
90 -1888 0
-91 -1888 1889 0
1888 -1889 0
91 -1889 0
-98 -1889 1890 0
1889 -1890 0
98 -1890 0
-88 -96 1891 0
88 -1891 0
96 -1891 0
-97 -1891 1892 0
1891 -1892 0
97 -1892 0
-104 -1892 1893 0
1892 -1893 0
104 -1893 0
-94 -102 1894 0
94 -1894 0
102 -1894 0
-103 -1894 1895 0
1894 -1895 0
103 -1895 0
-110 -1895 1896 0
1895 -1896 0
110 -1896 0
-100 -108 1897 0
100 -1897 0
108 -1897 0
-109 -1897 1898 0
1897 -1898 0
109 -1898 0
-116 -1898 1899 0
1898 -1899 0
116 -1899 0
-106 -114 1900 0
106 -1900 0
114 -1900 0
-115 -1900 1901 0
1900 -1901 0
115 -1901 0
-122 -1901 1902 0
1901 -1902 0
122 -1902 0
-112 -120 1903 0
112 -1903 0
120 -1903 0
-121 -1903 1904 0
1903 -1904 0
121 -1904 0
-128 -1904 1905 0
1904 -1905 0
128 -1905 0
-118 -126 1906 0
118 -1906 0
126 -1906 0
-127 -1906 1907 0
1906 -1907 0
127 -1907 0
-134 -1907 1908 0
1907 -1908 0
134 -1908 0
-124 -132 1909 0
124 -1909 0
132 -1909 0
-133 -1909 1910 0
1909 -1910 0
133 -1910 0
-140 -1910 1911 0
1910 -1911 0
140 -1911 0
-130 -138 1912 0
130 -1912 0
138 -1912 0
-139 -1912 1913 0
1912 -1913 0
139 -1913 0
-146 -1913 1914 0
1913 -1914 0
146 -1914 0
-136 -144 1915 0
136 -1915 0
144 -1915 0
-145 -1915 1916 0
1915 -1916 0
145 -1916 0
-152 -1916 1917 0
1916 -1917 0
152 -1917 0
-142 -150 1918 0
142 -1918 0
150 -1918 0
-151 -1918 1919 0
1918 -1919 0
151 -1919 0
-158 -1919 1920 0
1919 -1920 0
158 -1920 0
-148 -156 1921 0
148 -1921 0
156 -1921 0
-157 -1921 1922 0
1921 -1922 0
157 -1922 0
-164 -1922 1923 0
1922 -1923 0
164 -1923 0
1920 1923 -1924 0
-1923 1924 0
-1920 1924 0
1917 1924 -1925 0
-1924 1925 0
-1917 1925 0
1914 1925 -1926 0
-1925 1926 0
-1914 1926 0
1911 1926 -1927 0
-1926 1927 0
-1911 1927 0
1908 1927 -1928 0
-1927 1928 0
-1908 1928 0
1905 1928 -1929 0
-1928 1929 0
-1905 1929 0
1902 1929 -1930 0
-1929 1930 0
-1902 1930 0
1899 1930 -1931 0
-1930 1931 0
-1899 1931 0
1896 1931 -1932 0
-1931 1932 0
-1896 1932 0
1893 1932 -1933 0
-1932 1933 0
-1893 1933 0
1890 1933 -1934 0
-1933 1934 0
-1890 1934 0
1887 1934 -1935 0
-1934 1935 0
-1887 1935 0
1884 1935 -1936 0
-1935 1936 0
-1884 1936 0
1881 1936 -1937 0
-1936 1937 0
-1881 1937 0
1878 1937 -1938 0
-1937 1938 0
-1878 1938 0
1875 1938 -1939 0
-1938 1939 0
-1875 1939 0
1872 1939 -1940 0
-1939 1940 0
-1872 1940 0
1869 1940 -1941 0
-1940 1941 0
-1869 1941 0
1866 1941 -1942 0
-1941 1942 0
-1866 1942 0
1863 1942 -1943 0
-1942 1943 0
-1863 1943 0
1860 1943 -1944 0
-1943 1944 0
-1860 1944 0
1857 1944 -1945 0
-1944 1945 0
-1857 1945 0
1854 1945 -1946 0
-1945 1946 0
-1854 1946 0
1851 1946 -1947 0
-1946 1947 0
-1851 1947 0
1947 -1948 0
-1947 1948 0
1848 1948 0
-1 1949 0
1 -1949 0
-10 -1949 1950 0
1949 -1950 0
10 -1950 0
-14 -1950 1951 0
1950 -1951 0
14 -1951 0
-6 -7 1952 0
6 -1952 0
7 -1952 0
-16 -1952 1953 0
1952 -1953 0
16 -1953 0
-20 -1953 1954 0
1953 -1954 0
20 -1954 0
-12 -13 1955 0
12 -1955 0
13 -1955 0
-22 -1955 1956 0
1955 -1956 0
22 -1956 0
-26 -1956 1957 0
1956 -1957 0
26 -1957 0
-18 -19 1958 0
18 -1958 0
19 -1958 0
-28 -1958 1959 0
1958 -1959 0
28 -1959 0
-32 -1959 1960 0
1959 -1960 0
32 -1960 0
-24 -25 1961 0
24 -1961 0
25 -1961 0
-34 -1961 1962 0
1961 -1962 0
34 -1962 0
-38 -1962 1963 0
1962 -1963 0
38 -1963 0
-30 -31 1964 0
30 -1964 0
31 -1964 0
-40 -1964 1965 0
1964 -1965 0
40 -1965 0
-44 -1965 1966 0
1965 -1966 0
44 -1966 0
-36 -37 1967 0
36 -1967 0
37 -1967 0
-46 -1967 1968 0
1967 -1968 0
46 -1968 0
-50 -1968 1969 0
1968 -1969 0
50 -1969 0
-42 -43 1970 0
42 -1970 0
43 -1970 0
-52 -1970 1971 0
1970 -1971 0
52 -1971 0
-56 -1971 1972 0
1971 -1972 0
56 -1972 0
-48 -49 1973 0
48 -1973 0
49 -1973 0
-58 -1973 1974 0
1973 -1974 0
58 -1974 0
-62 -1974 1975 0
1974 -1975 0
62 -1975 0
-54 -55 1976 0
54 -1976 0
55 -1976 0
-64 -1976 1977 0
1976 -1977 0
64 -1977 0
-68 -1977 1978 0
1977 -1978 0
68 -1978 0
-60 -61 1979 0
60 -1979 0
61 -1979 0
-70 -1979 1980 0
1979 -1980 0
70 -1980 0
-74 -1980 1981 0
1980 -1981 0
74 -1981 0
-66 -67 1982 0
66 -1982 0
67 -1982 0
-76 -1982 1983 0
1982 -1983 0
76 -1983 0
-80 -1983 1984 0
1983 -1984 0
80 -1984 0
-72 -73 1985 0
72 -1985 0
73 -1985 0
-82 -1985 1986 0
1985 -1986 0
82 -1986 0
-86 -1986 1987 0
1986 -1987 0
86 -1987 0
-78 -79 1988 0
78 -1988 0
79 -1988 0
-88 -1988 1989 0
1988 -1989 0
88 -1989 0
-92 -1989 1990 0
1989 -1990 0
92 -1990 0
-84 -85 1991 0
84 -1991 0
85 -1991 0
-94 -1991 1992 0
1991 -1992 0
94 -1992 0
-98 -1992 1993 0
1992 -1993 0
98 -1993 0
-90 -91 1994 0
90 -1994 0
91 -1994 0
-100 -1994 1995 0
1994 -1995 0
100 -1995 0
-104 -1995 1996 0
1995 -1996 0
104 -1996 0
-96 -97 1997 0
96 -1997 0
97 -1997 0
-106 -1997 1998 0
1997 -1998 0
106 -1998 0
-110 -1998 1999 0
1998 -1999 0
110 -1999 0
-102 -103 2000 0
102 -2000 0
103 -2000 0
-112 -2000 2001 0
2000 -2001 0
112 -2001 0
-116 -2001 2002 0
2001 -2002 0
116 -2002 0
-108 -109 2003 0
108 -2003 0
109 -2003 0
-118 -2003 2004 0
2003 -2004 0
118 -2004 0
-122 -2004 2005 0
2004 -2005 0
122 -2005 0
-114 -115 2006 0
114 -2006 0
115 -2006 0
-124 -2006 2007 0
2006 -2007 0
124 -2007 0
-128 -2007 2008 0
2007 -2008 0
128 -2008 0
-120 -121 2009 0
120 -2009 0
121 -2009 0
-130 -2009 2010 0
2009 -2010 0
130 -2010 0
-134 -2010 2011 0
2010 -2011 0
134 -2011 0
-126 -127 2012 0
126 -2012 0
127 -2012 0
-136 -2012 2013 0
2012 -2013 0
136 -2013 0
-140 -2013 2014 0
2013 -2014 0
140 -2014 0
-132 -133 2015 0
132 -2015 0
133 -2015 0
-142 -2015 2016 0
2015 -2016 0
142 -2016 0
-146 -2016 2017 0
2016 -2017 0
146 -2017 0
-138 -139 2018 0
138 -2018 0
139 -2018 0
-148 -2018 2019 0
2018 -2019 0
148 -2019 0
-152 -2019 2020 0
2019 -2020 0
152 -2020 0
-144 -145 2021 0
144 -2021 0
145 -2021 0
-154 -2021 2022 0
2021 -2022 0
154 -2022 0
-158 -2022 2023 0
2022 -2023 0
158 -2023 0
-150 -151 2024 0
150 -2024 0
151 -2024 0
-160 -2024 2025 0
2024 -2025 0
160 -2025 0
-164 -2025 2026 0
2025 -2026 0
164 -2026 0
2023 2026 -2027 0
-2026 2027 0
-2023 2027 0
2020 2027 -2028 0
-2027 2028 0
-2020 2028 0
2017 2028 -2029 0
-2028 2029 0
-2017 2029 0
2014 2029 -2030 0
-2029 2030 0
-2014 2030 0
2011 2030 -2031 0
-2030 2031 0
-2011 2031 0
2008 2031 -2032 0
-2031 2032 0
-2008 2032 0
2005 2032 -2033 0
-2032 2033 0
-2005 2033 0
2002 2033 -2034 0
-2033 2034 0
-2002 2034 0
1999 2034 -2035 0
-2034 2035 0
-1999 2035 0
1996 2035 -2036 0
-2035 2036 0
-1996 2036 0
1993 2036 -2037 0
-2036 2037 0
-1993 2037 0
1990 2037 -2038 0
-2037 2038 0
-1990 2038 0
1987 2038 -2039 0
-2038 2039 0
-1987 2039 0
1984 2039 -2040 0
-2039 2040 0
-1984 2040 0
1981 2040 -2041 0
-2040 2041 0
-1981 2041 0
1978 2041 -2042 0
-2041 2042 0
-1978 2042 0
1975 2042 -2043 0
-2042 2043 0
-1975 2043 0
1972 2043 -2044 0
-2043 2044 0
-1972 2044 0
1969 2044 -2045 0
-2044 2045 0
-1969 2045 0
1966 2045 -2046 0
-2045 2046 0
-1966 2046 0
1963 2046 -2047 0
-2046 2047 0
-1963 2047 0
1960 2047 -2048 0
-2047 2048 0
-1960 2048 0
1957 2048 -2049 0
-2048 2049 0
-1957 2049 0
1954 2049 -2050 0
-2049 2050 0
-1954 2050 0
1951 2050 0
-1 2051 0
1 -2051 0
-8 -2051 2052 0
2051 -2052 0
8 -2052 0
-16 -2052 2053 0
2052 -2053 0
16 -2053 0
-6 -7 2054 0
6 -2054 0
7 -2054 0
-14 -2054 2055 0
2054 -2055 0
14 -2055 0
-22 -2055 2056 0
2055 -2056 0
22 -2056 0
-12 -13 2057 0
12 -2057 0
13 -2057 0
-20 -2057 2058 0
2057 -2058 0
20 -2058 0
-28 -2058 2059 0
2058 -2059 0
28 -2059 0
-18 -19 2060 0
18 -2060 0
19 -2060 0
-26 -2060 2061 0
2060 -2061 0
26 -2061 0
-34 -2061 2062 0
2061 -2062 0
34 -2062 0
-24 -25 2063 0
24 -2063 0
25 -2063 0
-32 -2063 2064 0
2063 -2064 0
32 -2064 0
-40 -2064 2065 0
2064 -2065 0
40 -2065 0
-30 -31 2066 0
30 -2066 0
31 -2066 0
-38 -2066 2067 0
2066 -2067 0
38 -2067 0
-46 -2067 2068 0
2067 -2068 0
46 -2068 0
-36 -37 2069 0
36 -2069 0
37 -2069 0
-44 -2069 2070 0
2069 -2070 0
44 -2070 0
-52 -2070 2071 0
2070 -2071 0
52 -2071 0
-42 -43 2072 0
42 -2072 0
43 -2072 0
-50 -2072 2073 0
2072 -2073 0
50 -2073 0
-58 -2073 2074 0
2073 -2074 0
58 -2074 0
-48 -49 2075 0
48 -2075 0
49 -2075 0
-56 -2075 2076 0
2075 -2076 0
56 -2076 0
-64 -2076 2077 0
2076 -2077 0
64 -2077 0
-54 -55 2078 0
54 -2078 0
55 -2078 0
-62 -2078 2079 0
2078 -2079 0
62 -2079 0
-70 -2079 2080 0
2079 -2080 0
70 -2080 0
-60 -61 2081 0
60 -2081 0
61 -2081 0
-68 -2081 2082 0
2081 -2082 0
68 -2082 0
-76 -2082 2083 0
2082 -2083 0
76 -2083 0
-66 -67 2084 0
66 -2084 0
67 -2084 0
-74 -2084 2085 0
2084 -2085 0
74 -2085 0
-82 -2085 2086 0
2085 -2086 0
82 -2086 0
-72 -73 2087 0
72 -2087 0
73 -2087 0
-80 -2087 2088 0
2087 -2088 0
80 -2088 0
-88 -2088 2089 0
2088 -2089 0
88 -2089 0
-78 -79 2090 0
78 -2090 0
79 -2090 0
-86 -2090 2091 0
2090 -2091 0
86 -2091 0
-94 -2091 2092 0
2091 -2092 0
94 -2092 0
-84 -85 2093 0
84 -2093 0
85 -2093 0
-92 -2093 2094 0
2093 -2094 0
92 -2094 0
-100 -2094 2095 0
2094 -2095 0
100 -2095 0
-90 -91 2096 0
90 -2096 0
91 -2096 0
-98 -2096 2097 0
2096 -2097 0
98 -2097 0
-106 -2097 2098 0
2097 -2098 0
106 -2098 0
-96 -97 2099 0
96 -2099 0
97 -2099 0
-104 -2099 2100 0
2099 -2100 0
104 -2100 0
-112 -2100 2101 0
2100 -2101 0
112 -2101 0
-102 -103 2102 0
102 -2102 0
103 -2102 0
-110 -2102 2103 0
2102 -2103 0
110 -2103 0
-118 -2103 2104 0
2103 -2104 0
118 -2104 0
-108 -109 2105 0
108 -2105 0
109 -2105 0
-116 -2105 2106 0
2105 -2106 0
116 -2106 0
-124 -2106 2107 0
2106 -2107 0
124 -2107 0
-114 -115 2108 0
114 -2108 0
115 -2108 0
-122 -2108 2109 0
2108 -2109 0
122 -2109 0
-130 -2109 2110 0
2109 -2110 0
130 -2110 0
-120 -121 2111 0
120 -2111 0
121 -2111 0
-128 -2111 2112 0
2111 -2112 0
128 -2112 0
-136 -2112 2113 0
2112 -2113 0
136 -2113 0
-126 -127 2114 0
126 -2114 0
127 -2114 0
-134 -2114 2115 0
2114 -2115 0
134 -2115 0
-142 -2115 2116 0
2115 -2116 0
142 -2116 0
-132 -133 2117 0
132 -2117 0
133 -2117 0
-140 -2117 2118 0
2117 -2118 0
140 -2118 0
-148 -2118 2119 0
2118 -2119 0
148 -2119 0
-138 -139 2120 0
138 -2120 0
139 -2120 0
-146 -2120 2121 0
2120 -2121 0
146 -2121 0
-154 -2121 2122 0
2121 -2122 0
154 -2122 0
-144 -145 2123 0
144 -2123 0
145 -2123 0
-152 -2123 2124 0
2123 -2124 0
152 -2124 0
-160 -2124 2125 0
2124 -2125 0
160 -2125 0
-150 -151 2126 0
150 -2126 0
151 -2126 0
-158 -2126 2127 0
2126 -2127 0
158 -2127 0
-166 -2127 2128 0
2127 -2128 0
166 -2128 0
2125 2128 -2129 0
-2128 2129 0
-2125 2129 0
2122 2129 -2130 0
-2129 2130 0
-2122 2130 0
2119 2130 -2131 0
-2130 2131 0
-2119 2131 0
2116 2131 -2132 0
-2131 2132 0
-2116 2132 0
2113 2132 -2133 0
-2132 2133 0
-2113 2133 0
2110 2133 -2134 0
-2133 2134 0
-2110 2134 0
2107 2134 -2135 0
-2134 2135 0
-2107 2135 0
2104 2135 -2136 0
-2135 2136 0
-2104 2136 0
2101 2136 -2137 0
-2136 2137 0
-2101 2137 0
2098 2137 -2138 0
-2137 2138 0
-2098 2138 0
2095 2138 -2139 0
-2138 2139 0
-2095 2139 0
2092 2139 -2140 0
-2139 2140 0
-2092 2140 0
2089 2140 -2141 0
-2140 2141 0
-2089 2141 0
2086 2141 -2142 0
-2141 2142 0
-2086 2142 0
2083 2142 -2143 0
-2142 2143 0
-2083 2143 0
2080 2143 -2144 0
-2143 2144 0
-2080 2144 0
2077 2144 -2145 0
-2144 2145 0
-2077 2145 0
2074 2145 -2146 0
-2145 2146 0
-2074 2146 0
2071 2146 -2147 0
-2146 2147 0
-2071 2147 0
2068 2147 -2148 0
-2147 2148 0
-2068 2148 0
2065 2148 -2149 0
-2148 2149 0
-2065 2149 0
2062 2149 -2150 0
-2149 2150 0
-2062 2150 0
2059 2150 -2151 0
-2150 2151 0
-2059 2151 0
2056 2151 -2152 0
-2151 2152 0
-2056 2152 0
2053 2152 0
-4 2153 0
4 -2153 0
-7 -2153 2154 0
2153 -2154 0
7 -2154 0
-14 -2154 2155 0
2154 -2155 0
14 -2155 0
-6 -10 2156 0
6 -2156 0
10 -2156 0
-13 -2156 2157 0
2156 -2157 0
13 -2157 0
-20 -2157 2158 0
2157 -2158 0
20 -2158 0
-12 -16 2159 0
12 -2159 0
16 -2159 0
-19 -2159 2160 0
2159 -2160 0
19 -2160 0
-26 -2160 2161 0
2160 -2161 0
26 -2161 0
-18 -22 2162 0
18 -2162 0
22 -2162 0
-25 -2162 2163 0
2162 -2163 0
25 -2163 0
-32 -2163 2164 0
2163 -2164 0
32 -2164 0
-24 -28 2165 0
24 -2165 0
28 -2165 0
-31 -2165 2166 0
2165 -2166 0
31 -2166 0
-38 -2166 2167 0
2166 -2167 0
38 -2167 0
-30 -34 2168 0
30 -2168 0
34 -2168 0
-37 -2168 2169 0
2168 -2169 0
37 -2169 0
-44 -2169 2170 0
2169 -2170 0
44 -2170 0
-36 -40 2171 0
36 -2171 0
40 -2171 0
-43 -2171 2172 0
2171 -2172 0
43 -2172 0
-50 -2172 2173 0
2172 -2173 0
50 -2173 0
-42 -46 2174 0
42 -2174 0
46 -2174 0
-49 -2174 2175 0
2174 -2175 0
49 -2175 0
-56 -2175 2176 0
2175 -2176 0
56 -2176 0
-48 -52 2177 0
48 -2177 0
52 -2177 0
-55 -2177 2178 0
2177 -2178 0
55 -2178 0
-62 -2178 2179 0
2178 -2179 0
62 -2179 0
-54 -58 2180 0
54 -2180 0
58 -2180 0
-61 -2180 2181 0
2180 -2181 0
61 -2181 0
-68 -2181 2182 0
2181 -2182 0
68 -2182 0
-60 -64 2183 0
60 -2183 0
64 -2183 0
-67 -2183 2184 0
2183 -2184 0
67 -2184 0
-74 -2184 2185 0
2184 -2185 0
74 -2185 0
-66 -70 2186 0
66 -2186 0
70 -2186 0
-73 -2186 2187 0
2186 -2187 0
73 -2187 0
-80 -2187 2188 0
2187 -2188 0
80 -2188 0
-72 -76 2189 0
72 -2189 0
76 -2189 0
-79 -2189 2190 0
2189 -2190 0
79 -2190 0
-86 -2190 2191 0
2190 -2191 0
86 -2191 0
-78 -82 2192 0
78 -2192 0
82 -2192 0
-85 -2192 2193 0
2192 -2193 0
85 -2193 0
-92 -2193 2194 0
2193 -2194 0
92 -2194 0
-84 -88 2195 0
84 -2195 0
88 -2195 0
-91 -2195 2196 0
2195 -2196 0
91 -2196 0
-98 -2196 2197 0
2196 -2197 0
98 -2197 0
-90 -94 2198 0
90 -2198 0
94 -2198 0
-97 -2198 2199 0
2198 -2199 0
97 -2199 0
-104 -2199 2200 0
2199 -2200 0
104 -2200 0
-96 -100 2201 0
96 -2201 0
100 -2201 0
-103 -2201 2202 0
2201 -2202 0
103 -2202 0
-110 -2202 2203 0
2202 -2203 0
110 -2203 0
-102 -106 2204 0
102 -2204 0
106 -2204 0
-109 -2204 2205 0
2204 -2205 0
109 -2205 0
-116 -2205 2206 0
2205 -2206 0
116 -2206 0
-108 -112 2207 0
108 -2207 0
112 -2207 0
-115 -2207 2208 0
2207 -2208 0
115 -2208 0
-122 -2208 2209 0
2208 -2209 0
122 -2209 0
-114 -118 2210 0
114 -2210 0
118 -2210 0
-121 -2210 2211 0
2210 -2211 0
121 -2211 0
-128 -2211 2212 0
2211 -2212 0
128 -2212 0
-120 -124 2213 0
120 -2213 0
124 -2213 0
-127 -2213 2214 0
2213 -2214 0
127 -2214 0
-134 -2214 2215 0
2214 -2215 0
134 -2215 0
-126 -130 2216 0
126 -2216 0
130 -2216 0
-133 -2216 2217 0
2216 -2217 0
133 -2217 0
-140 -2217 2218 0
2217 -2218 0
140 -2218 0
-132 -136 2219 0
132 -2219 0
136 -2219 0
-139 -2219 2220 0
2219 -2220 0
139 -2220 0
-146 -2220 2221 0
2220 -2221 0
146 -2221 0
-138 -142 2222 0
138 -2222 0
142 -2222 0
-145 -2222 2223 0
2222 -2223 0
145 -2223 0
-152 -2223 2224 0
2223 -2224 0
152 -2224 0
-144 -148 2225 0
144 -2225 0
148 -2225 0
-151 -2225 2226 0
2225 -2226 0
151 -2226 0
-158 -2226 2227 0
2226 -2227 0
158 -2227 0
-150 -154 2228 0
150 -2228 0
154 -2228 0
-157 -2228 2229 0
2228 -2229 0
157 -2229 0
-164 -2229 2230 0
2229 -2230 0
164 -2230 0
2227 2230 -2231 0
-2230 2231 0
-2227 2231 0
2224 2231 -2232 0
-2231 2232 0
-2224 2232 0
2221 2232 -2233 0
-2232 2233 0
-2221 2233 0
2218 2233 -2234 0
-2233 2234 0
-2218 2234 0
2215 2234 -2235 0
-2234 2235 0
-2215 2235 0
2212 2235 -2236 0
-2235 2236 0
-2212 2236 0
2209 2236 -2237 0
-2236 2237 0
-2209 2237 0
2206 2237 -2238 0
-2237 2238 0
-2206 2238 0
2203 2238 -2239 0
-2238 2239 0
-2203 2239 0
2200 2239 -2240 0
-2239 2240 0
-2200 2240 0
2197 2240 -2241 0
-2240 2241 0
-2197 2241 0
2194 2241 -2242 0
-2241 2242 0
-2194 2242 0
2191 2242 -2243 0
-2242 2243 0
-2191 2243 0
2188 2243 -2244 0
-2243 2244 0
-2188 2244 0
2185 2244 -2245 0
-2244 2245 0
-2185 2245 0
2182 2245 -2246 0
-2245 2246 0
-2182 2246 0
2179 2246 -2247 0
-2246 2247 0
-2179 2247 0
2176 2247 -2248 0
-2247 2248 0
-2176 2248 0
2173 2248 -2249 0
-2248 2249 0
-2173 2249 0
2170 2249 -2250 0
-2249 2250 0
-2170 2250 0
2167 2250 -2251 0
-2250 2251 0
-2167 2251 0
2164 2251 -2252 0
-2251 2252 0
-2164 2252 0
2161 2252 -2253 0
-2252 2253 0
-2161 2253 0
2158 2253 -2254 0
-2253 2254 0
-2158 2254 0
2155 2254 0
-4 2255 0
4 -2255 0
-8 -2255 2256 0
2255 -2256 0
8 -2256 0
-13 -2256 2257 0
2256 -2257 0
13 -2257 0
-6 -10 2258 0
6 -2258 0
10 -2258 0
-14 -2258 2259 0
2258 -2259 0
14 -2259 0
-19 -2259 2260 0
2259 -2260 0
19 -2260 0
-12 -16 2261 0
12 -2261 0
16 -2261 0
-20 -2261 2262 0
2261 -2262 0
20 -2262 0
-25 -2262 2263 0
2262 -2263 0
25 -2263 0
-18 -22 2264 0
18 -2264 0
22 -2264 0
-26 -2264 2265 0
2264 -2265 0
26 -2265 0
-31 -2265 2266 0
2265 -2266 0
31 -2266 0
-24 -28 2267 0
24 -2267 0
28 -2267 0
-32 -2267 2268 0
2267 -2268 0
32 -2268 0
-37 -2268 2269 0
2268 -2269 0
37 -2269 0
-30 -34 2270 0
30 -2270 0
34 -2270 0
-38 -2270 2271 0
2270 -2271 0
38 -2271 0
-43 -2271 2272 0
2271 -2272 0
43 -2272 0
-36 -40 2273 0
36 -2273 0
40 -2273 0
-44 -2273 2274 0
2273 -2274 0
44 -2274 0
-49 -2274 2275 0
2274 -2275 0
49 -2275 0
-42 -46 2276 0
42 -2276 0
46 -2276 0
-50 -2276 2277 0
2276 -2277 0
50 -2277 0
-55 -2277 2278 0
2277 -2278 0
55 -2278 0
-48 -52 2279 0
48 -2279 0
52 -2279 0
-56 -2279 2280 0
2279 -2280 0
56 -2280 0
-61 -2280 2281 0
2280 -2281 0
61 -2281 0
-54 -58 2282 0
54 -2282 0
58 -2282 0
-62 -2282 2283 0
2282 -2283 0
62 -2283 0
-67 -2283 2284 0
2283 -2284 0
67 -2284 0
-60 -64 2285 0
60 -2285 0
64 -2285 0
-68 -2285 2286 0
2285 -2286 0
68 -2286 0
-73 -2286 2287 0
2286 -2287 0
73 -2287 0
-66 -70 2288 0
66 -2288 0
70 -2288 0
-74 -2288 2289 0
2288 -2289 0
74 -2289 0
-79 -2289 2290 0
2289 -2290 0
79 -2290 0
-72 -76 2291 0
72 -2291 0
76 -2291 0
-80 -2291 2292 0
2291 -2292 0
80 -2292 0
-85 -2292 2293 0
2292 -2293 0
85 -2293 0
-78 -82 2294 0
78 -2294 0
82 -2294 0
-86 -2294 2295 0
2294 -2295 0
86 -2295 0
-91 -2295 2296 0
2295 -2296 0
91 -2296 0
-84 -88 2297 0
84 -2297 0
88 -2297 0
-92 -2297 2298 0
2297 -2298 0
92 -2298 0
-97 -2298 2299 0
2298 -2299 0
97 -2299 0
-90 -94 2300 0
90 -2300 0
94 -2300 0
-98 -2300 2301 0
2300 -2301 0
98 -2301 0
-103 -2301 2302 0
2301 -2302 0
103 -2302 0
-96 -100 2303 0
96 -2303 0
100 -2303 0
-104 -2303 2304 0
2303 -2304 0
104 -2304 0
-109 -2304 2305 0
2304 -2305 0
109 -2305 0
-102 -106 2306 0
102 -2306 0
106 -2306 0
-110 -2306 2307 0
2306 -2307 0
110 -2307 0
-115 -2307 2308 0
2307 -2308 0
115 -2308 0
-108 -112 2309 0
108 -2309 0
112 -2309 0
-116 -2309 2310 0
2309 -2310 0
116 -2310 0
-121 -2310 2311 0
2310 -2311 0
121 -2311 0
-114 -118 2312 0
114 -2312 0
118 -2312 0
-122 -2312 2313 0
2312 -2313 0
122 -2313 0
-127 -2313 2314 0
2313 -2314 0
127 -2314 0
-120 -124 2315 0
120 -2315 0
124 -2315 0
-128 -2315 2316 0
2315 -2316 0
128 -2316 0
-133 -2316 2317 0
2316 -2317 0
133 -2317 0
-126 -130 2318 0
126 -2318 0
130 -2318 0
-134 -2318 2319 0
2318 -2319 0
134 -2319 0
-139 -2319 2320 0
2319 -2320 0
139 -2320 0
-132 -136 2321 0
132 -2321 0
136 -2321 0
-140 -2321 2322 0
2321 -2322 0
140 -2322 0
-145 -2322 2323 0
2322 -2323 0
145 -2323 0
-138 -142 2324 0
138 -2324 0
142 -2324 0
-146 -2324 2325 0
2324 -2325 0
146 -2325 0
-151 -2325 2326 0
2325 -2326 0
151 -2326 0
-144 -148 2327 0
144 -2327 0
148 -2327 0
-152 -2327 2328 0
2327 -2328 0
152 -2328 0
-157 -2328 2329 0
2328 -2329 0
157 -2329 0
-150 -154 2330 0
150 -2330 0
154 -2330 0
-158 -2330 2331 0
2330 -2331 0
158 -2331 0
-163 -2331 2332 0
2331 -2332 0
163 -2332 0
2329 2332 -2333 0
-2332 2333 0
-2329 2333 0
2326 2333 -2334 0
-2333 2334 0
-2326 2334 0
2323 2334 -2335 0
-2334 2335 0
-2323 2335 0
2320 2335 -2336 0
-2335 2336 0
-2320 2336 0
2317 2336 -2337 0
-2336 2337 0
-2317 2337 0
2314 2337 -2338 0
-2337 2338 0
-2314 2338 0
2311 2338 -2339 0
-2338 2339 0
-2311 2339 0
2308 2339 -2340 0
-2339 2340 0
-2308 2340 0
2305 2340 -2341 0
-2340 2341 0
-2305 2341 0
2302 2341 -2342 0
-2341 2342 0
-2302 2342 0
2299 2342 -2343 0
-2342 2343 0
-2299 2343 0
2296 2343 -2344 0
-2343 2344 0
-2296 2344 0
2293 2344 -2345 0
-2344 2345 0
-2293 2345 0
2290 2345 -2346 0
-2345 2346 0
-2290 2346 0
2287 2346 -2347 0
-2346 2347 0
-2287 2347 0
2284 2347 -2348 0
-2347 2348 0
-2284 2348 0
2281 2348 -2349 0
-2348 2349 0
-2281 2349 0
2278 2349 -2350 0
-2349 2350 0
-2278 2350 0
2275 2350 -2351 0
-2350 2351 0
-2275 2351 0
2272 2351 -2352 0
-2351 2352 0
-2272 2352 0
2269 2352 -2353 0
-2352 2353 0
-2269 2353 0
2266 2353 -2354 0
-2353 2354 0
-2266 2354 0
2263 2354 -2355 0
-2354 2355 0
-2263 2355 0
2260 2355 -2356 0
-2355 2356 0
-2260 2356 0
2257 2356 0
-2 2357 0
2 -2357 0
-7 -2357 2358 0
2357 -2358 0
7 -2358 0
-16 -2358 2359 0
2358 -2359 0
16 -2359 0
-6 -8 2360 0
6 -2360 0
8 -2360 0
-13 -2360 2361 0
2360 -2361 0
13 -2361 0
-22 -2361 2362 0
2361 -2362 0
22 -2362 0
-12 -14 2363 0
12 -2363 0
14 -2363 0
-19 -2363 2364 0
2363 -2364 0
19 -2364 0
-28 -2364 2365 0
2364 -2365 0
28 -2365 0
-18 -20 2366 0
18 -2366 0
20 -2366 0
-25 -2366 2367 0
2366 -2367 0
25 -2367 0
-34 -2367 2368 0
2367 -2368 0
34 -2368 0
-24 -26 2369 0
24 -2369 0
26 -2369 0
-31 -2369 2370 0
2369 -2370 0
31 -2370 0
-40 -2370 2371 0
2370 -2371 0
40 -2371 0
-30 -32 2372 0
30 -2372 0
32 -2372 0
-37 -2372 2373 0
2372 -2373 0
37 -2373 0
-46 -2373 2374 0
2373 -2374 0
46 -2374 0
-36 -38 2375 0
36 -2375 0
38 -2375 0
-43 -2375 2376 0
2375 -2376 0
43 -2376 0
-52 -2376 2377 0
2376 -2377 0
52 -2377 0
-42 -44 2378 0
42 -2378 0
44 -2378 0
-49 -2378 2379 0
2378 -2379 0
49 -2379 0
-58 -2379 2380 0
2379 -2380 0
58 -2380 0
-48 -50 2381 0
48 -2381 0
50 -2381 0
-55 -2381 2382 0
2381 -2382 0
55 -2382 0
-64 -2382 2383 0
2382 -2383 0
64 -2383 0
-54 -56 2384 0
54 -2384 0
56 -2384 0
-61 -2384 2385 0
2384 -2385 0
61 -2385 0
-70 -2385 2386 0
2385 -2386 0
70 -2386 0
-60 -62 2387 0
60 -2387 0
62 -2387 0
-67 -2387 2388 0
2387 -2388 0
67 -2388 0
-76 -2388 2389 0
2388 -2389 0
76 -2389 0
-66 -68 2390 0
66 -2390 0
68 -2390 0
-73 -2390 2391 0
2390 -2391 0
73 -2391 0
-82 -2391 2392 0
2391 -2392 0
82 -2392 0
-72 -74 2393 0
72 -2393 0
74 -2393 0
-79 -2393 2394 0
2393 -2394 0
79 -2394 0
-88 -2394 2395 0
2394 -2395 0
88 -2395 0
-78 -80 2396 0
78 -2396 0
80 -2396 0
-85 -2396 2397 0
2396 -2397 0
85 -2397 0
-94 -2397 2398 0
2397 -2398 0
94 -2398 0
-84 -86 2399 0
84 -2399 0
86 -2399 0
-91 -2399 2400 0
2399 -2400 0
91 -2400 0
-100 -2400 2401 0
2400 -2401 0
100 -2401 0
-90 -92 2402 0
90 -2402 0
92 -2402 0
-97 -2402 2403 0
2402 -2403 0
97 -2403 0
-106 -2403 2404 0
2403 -2404 0
106 -2404 0
-96 -98 2405 0
96 -2405 0
98 -2405 0
-103 -2405 2406 0
2405 -2406 0
103 -2406 0
-112 -2406 2407 0
2406 -2407 0
112 -2407 0
-102 -104 2408 0
102 -2408 0
104 -2408 0
-109 -2408 2409 0
2408 -2409 0
109 -2409 0
-118 -2409 2410 0
2409 -2410 0
118 -2410 0
-108 -110 2411 0
108 -2411 0
110 -2411 0
-115 -2411 2412 0
2411 -2412 0
115 -2412 0
-124 -2412 2413 0
2412 -2413 0
124 -2413 0
-114 -116 2414 0
114 -2414 0
116 -2414 0
-121 -2414 2415 0
2414 -2415 0
121 -2415 0
-130 -2415 2416 0
2415 -2416 0
130 -2416 0
-120 -122 2417 0
120 -2417 0
122 -2417 0
-127 -2417 2418 0
2417 -2418 0
127 -2418 0
-136 -2418 2419 0
2418 -2419 0
136 -2419 0
-126 -128 2420 0
126 -2420 0
128 -2420 0
-133 -2420 2421 0
2420 -2421 0
133 -2421 0
-142 -2421 2422 0
2421 -2422 0
142 -2422 0
-132 -134 2423 0
132 -2423 0
134 -2423 0
-139 -2423 2424 0
2423 -2424 0
139 -2424 0
-148 -2424 2425 0
2424 -2425 0
148 -2425 0
-138 -140 2426 0
138 -2426 0
140 -2426 0
-145 -2426 2427 0
2426 -2427 0
145 -2427 0
-154 -2427 2428 0
2427 -2428 0
154 -2428 0
-144 -146 2429 0
144 -2429 0
146 -2429 0
-151 -2429 2430 0
2429 -2430 0
151 -2430 0
-160 -2430 2431 0
2430 -2431 0
160 -2431 0
-150 -152 2432 0
150 -2432 0
152 -2432 0
-157 -2432 2433 0
2432 -2433 0
157 -2433 0
-166 -2433 2434 0
2433 -2434 0
166 -2434 0
2431 2434 -2435 0
-2434 2435 0
-2431 2435 0
2428 2435 -2436 0
-2435 2436 0
-2428 2436 0
2425 2436 -2437 0
-2436 2437 0
-2425 2437 0
2422 2437 -2438 0
-2437 2438 0
-2422 2438 0
2419 2438 -2439 0
-2438 2439 0
-2419 2439 0
2416 2439 -2440 0
-2439 2440 0
-2416 2440 0
2413 2440 -2441 0
-2440 2441 0
-2413 2441 0
2410 2441 -2442 0
-2441 2442 0
-2410 2442 0
2407 2442 -2443 0
-2442 2443 0
-2407 2443 0
2404 2443 -2444 0
-2443 2444 0
-2404 2444 0
2401 2444 -2445 0
-2444 2445 0
-2401 2445 0
2398 2445 -2446 0
-2445 2446 0
-2398 2446 0
2395 2446 -2447 0
-2446 2447 0
-2395 2447 0
2392 2447 -2448 0
-2447 2448 0
-2392 2448 0
2389 2448 -2449 0
-2448 2449 0
-2389 2449 0
2386 2449 -2450 0
-2449 2450 0
-2386 2450 0
2383 2450 -2451 0
-2450 2451 0
-2383 2451 0
2380 2451 -2452 0
-2451 2452 0
-2380 2452 0
2377 2452 -2453 0
-2452 2453 0
-2377 2453 0
2374 2453 -2454 0
-2453 2454 0
-2374 2454 0
2371 2454 -2455 0
-2454 2455 0
-2371 2455 0
2368 2455 -2456 0
-2455 2456 0
-2368 2456 0
2365 2456 -2457 0
-2456 2457 0
-2365 2457 0
2362 2457 -2458 0
-2457 2458 0
-2362 2458 0
2359 2458 0
-2 2459 0
2 -2459 0
-10 -2459 2460 0
2459 -2460 0
10 -2460 0
-13 -2460 2461 0
2460 -2461 0
13 -2461 0
-6 -8 2462 0
6 -2462 0
8 -2462 0
-16 -2462 2463 0
2462 -2463 0
16 -2463 0
-19 -2463 2464 0
2463 -2464 0
19 -2464 0
-12 -14 2465 0
12 -2465 0
14 -2465 0
-22 -2465 2466 0
2465 -2466 0
22 -2466 0
-25 -2466 2467 0
2466 -2467 0
25 -2467 0
-18 -20 2468 0
18 -2468 0
20 -2468 0
-28 -2468 2469 0
2468 -2469 0
28 -2469 0
-31 -2469 2470 0
2469 -2470 0
31 -2470 0
-24 -26 2471 0
24 -2471 0
26 -2471 0
-34 -2471 2472 0
2471 -2472 0
34 -2472 0
-37 -2472 2473 0
2472 -2473 0
37 -2473 0
-30 -32 2474 0
30 -2474 0
32 -2474 0
-40 -2474 2475 0
2474 -2475 0
40 -2475 0
-43 -2475 2476 0
2475 -2476 0
43 -2476 0
-36 -38 2477 0
36 -2477 0
38 -2477 0
-46 -2477 2478 0
2477 -2478 0
46 -2478 0
-49 -2478 2479 0
2478 -2479 0
49 -2479 0
-42 -44 2480 0
42 -2480 0
44 -2480 0
-52 -2480 2481 0
2480 -2481 0
52 -2481 0
-55 -2481 2482 0
2481 -2482 0
55 -2482 0
-48 -50 2483 0
48 -2483 0
50 -2483 0
-58 -2483 2484 0
2483 -2484 0
58 -2484 0
-61 -2484 2485 0
2484 -2485 0
61 -2485 0
-54 -56 2486 0
54 -2486 0
56 -2486 0
-64 -2486 2487 0
2486 -2487 0
64 -2487 0
-67 -2487 2488 0
2487 -2488 0
67 -2488 0
-60 -62 2489 0
60 -2489 0
62 -2489 0
-70 -2489 2490 0
2489 -2490 0
70 -2490 0
-73 -2490 2491 0
2490 -2491 0
73 -2491 0
-66 -68 2492 0
66 -2492 0
68 -2492 0
-76 -2492 2493 0
2492 -2493 0
76 -2493 0
-79 -2493 2494 0
2493 -2494 0
79 -2494 0
-72 -74 2495 0
72 -2495 0
74 -2495 0
-82 -2495 2496 0
2495 -2496 0
82 -2496 0
-85 -2496 2497 0
2496 -2497 0
85 -2497 0
-78 -80 2498 0
78 -2498 0
80 -2498 0
-88 -2498 2499 0
2498 -2499 0
88 -2499 0
-91 -2499 2500 0
2499 -2500 0
91 -2500 0
-84 -86 2501 0
84 -2501 0
86 -2501 0
-94 -2501 2502 0
2501 -2502 0
94 -2502 0
-97 -2502 2503 0
2502 -2503 0
97 -2503 0
-90 -92 2504 0
90 -2504 0
92 -2504 0
-100 -2504 2505 0
2504 -2505 0
100 -2505 0
-103 -2505 2506 0
2505 -2506 0
103 -2506 0
-96 -98 2507 0
96 -2507 0
98 -2507 0
-106 -2507 2508 0
2507 -2508 0
106 -2508 0
-109 -2508 2509 0
2508 -2509 0
109 -2509 0
-102 -104 2510 0
102 -2510 0
104 -2510 0
-112 -2510 2511 0
2510 -2511 0
112 -2511 0
-115 -2511 2512 0
2511 -2512 0
115 -2512 0
-108 -110 2513 0
108 -2513 0
110 -2513 0
-118 -2513 2514 0
2513 -2514 0
118 -2514 0
-121 -2514 2515 0
2514 -2515 0
121 -2515 0
-114 -116 2516 0
114 -2516 0
116 -2516 0
-124 -2516 2517 0
2516 -2517 0
124 -2517 0
-127 -2517 2518 0
2517 -2518 0
127 -2518 0
-120 -122 2519 0
120 -2519 0
122 -2519 0
-130 -2519 2520 0
2519 -2520 0
130 -2520 0
-133 -2520 2521 0
2520 -2521 0
133 -2521 0
-126 -128 2522 0
126 -2522 0
128 -2522 0
-136 -2522 2523 0
2522 -2523 0
136 -2523 0
-139 -2523 2524 0
2523 -2524 0
139 -2524 0
-132 -134 2525 0
132 -2525 0
134 -2525 0
-142 -2525 2526 0
2525 -2526 0
142 -2526 0
-145 -2526 2527 0
2526 -2527 0
145 -2527 0
-138 -140 2528 0
138 -2528 0
140 -2528 0
-148 -2528 2529 0
2528 -2529 0
148 -2529 0
-151 -2529 2530 0
2529 -2530 0
151 -2530 0
-144 -146 2531 0
144 -2531 0
146 -2531 0
-154 -2531 2532 0
2531 -2532 0
154 -2532 0
-157 -2532 2533 0
2532 -2533 0
157 -2533 0
-150 -152 2534 0
150 -2534 0
152 -2534 0
-160 -2534 2535 0
2534 -2535 0
160 -2535 0
-163 -2535 2536 0
2535 -2536 0
163 -2536 0
2533 2536 -2537 0
-2536 2537 0
-2533 2537 0
2530 2537 -2538 0
-2537 2538 0
-2530 2538 0
2527 2538 -2539 0
-2538 2539 0
-2527 2539 0
2524 2539 -2540 0
-2539 2540 0
-2524 2540 0
2521 2540 -2541 0
-2540 2541 0
-2521 2541 0
2518 2541 -2542 0
-2541 2542 0
-2518 2542 0
2515 2542 -2543 0
-2542 2543 0
-2515 2543 0
2512 2543 -2544 0
-2543 2544 0
-2512 2544 0
2509 2544 -2545 0
-2544 2545 0
-2509 2545 0
2506 2545 -2546 0
-2545 2546 0
-2506 2546 0
2503 2546 -2547 0
-2546 2547 0
-2503 2547 0
2500 2547 -2548 0
-2547 2548 0
-2500 2548 0
2497 2548 -2549 0
-2548 2549 0
-2497 2549 0
2494 2549 -2550 0
-2549 2550 0
-2494 2550 0
2491 2550 -2551 0
-2550 2551 0
-2491 2551 0
2488 2551 -2552 0
-2551 2552 0
-2488 2552 0
2485 2552 -2553 0
-2552 2553 0
-2485 2553 0
2482 2553 -2554 0
-2553 2554 0
-2482 2554 0
2479 2554 -2555 0
-2554 2555 0
-2479 2555 0
2476 2555 -2556 0
-2555 2556 0
-2476 2556 0
2473 2556 -2557 0
-2556 2557 0
-2473 2557 0
2470 2557 -2558 0
-2557 2558 0
-2470 2558 0
2467 2558 -2559 0
-2558 2559 0
-2467 2559 0
2464 2559 -2560 0
-2559 2560 0
-2464 2560 0
2461 2560 0
